     Program PWSCF v.7.0 starts on 21Mar2022 at  3: 0:12

     R & G space division:  proc/nbgrp/npool/nimage =      90

     Reading input from base.in
Warning: card &CELL ignored
Warning: card / ignored

     Current dimensions of program PWSCF are:
     Max number of different atomic species (ntypx) = 10
     Max number of k-points (npk) =  40000
     Max angular momentum in pseudopotentials (lmaxx) =  4
     Found identity + ( -0.5000  0.0000  0.0000) symmetry
     This is a supercell, fractional translations are disabled
     Message from routine setup:
     using ibrav=0 with symmetry is DISCOURAGED, use correct ibrav instead

     Using Slab Decomposition

     bravais-lattice index     =            0
     lattice parameter (alat)  =      10.7434  a.u.
     unit-cell volume          =    8296.9641 (a.u.)^3
     number of atoms/cell      =           20
     number of atomic types    =            2
     number of electrons       =       376.00
     number of Kohn-Sham states=          226
     kinetic-energy cutoff     =      98.0000  Ry
     charge density cutoff     =    1176.0000  Ry
     scf convergence threshold =      4.0E-09
     mixing beta               =       0.7000
     number of iterations used =            8  local-TF  mixing
     energy convergence thresh.=      2.0E-04
     force convergence thresh. =      1.0E-04
     Exchange-correlation= PBESOL
                           (   1   4  10   8   0   0   0)
     nstep                     =           50

     celldm(1)=  10.743355  celldm(2)=   0.000000  celldm(3)=   0.000000
     celldm(4)=   0.000000  celldm(5)=   0.000000  celldm(6)=   0.000000

     crystal axes: (cart. coord. in units of alat)
               a(1) = (   1.000000   0.000000   0.000000 )
               a(2) = (   0.000000   1.000000   0.000000 )
               a(3) = (   0.000000   0.000000   6.691130 )

     reciprocal axes: (cart. coord. in units 2 pi/alat)
               b(1) = (  1.000000  0.000000  0.000000 )
               b(2) = (  0.000000  1.000000  0.000000 )
               b(3) = (  0.000000  0.000000  0.149452 )

     PseudoPot. # 1 for Ag read from file:
     ../pseudo/Ag.upf
     MD5 check sum: ad830d0ddad01bb1c4c3455ef2da8ae5
     Pseudo is Norm-conserving + core correction, Zval = 19.0
     Generated using ONCVPSP code by D. R. Hamann
     Using radial grid of 1538 points,  6 beta functions with:
                l(1) =   0
                l(2) =   0
                l(3) =   1
                l(4) =   1
                l(5) =   2
                l(6) =   2

     PseudoPot. # 2 for Ni read from file:
     ../pseudo/Ni.upf
     MD5 check sum: 3ec56ad6bf78c9cc1bbec815420e1c7d
     Pseudo is Norm-conserving + core correction, Zval = 18.0
     Generated using ONCVPSP code by D. R. Hamann
     Using radial grid of 1356 points,  6 beta functions with:
                l(1) =   0
                l(2) =   0
                l(3) =   1
                l(4) =   1
                l(5) =   2
                l(6) =   2

     atomic species   valence    mass     pseudopotential
        Ag            19.00   107.86820     Ag( 1.00)
        Ni            18.00    58.69340     Ni( 1.00)

     Starting magnetic structure
     atomic species   magnetization
        Ag           0.100
        Ni           0.278

      8 Sym. Ops. (no inversion) found

                                    s                        frac. trans.

      isym =  1     identity

 cryst.   s( 1) = (     1          0          0      )
                  (     0          1          0      )
                  (     0          0          1      )

 cart.    s( 1) = (  1.0000000  0.0000000  0.0000000 )
                  (  0.0000000  1.0000000  0.0000000 )
                  (  0.0000000  0.0000000  1.0000000 )

      isym =  2     180 deg rotation - cart. axis [0,0,1]

[...]

      isym =  4      90 deg rotation - cart. axis [0,0,1]

[...]

      isym =  5     inv. 180 deg rotation - cart. axis [0,1,0]

[...]

      isym =  8     inv. 180 deg rotation - cart. axis [1,-1,0]

 cryst.   s( 8) = (     0          1          0      )
                  (     1          0          0      )
                  (     0          0          1      )

 cart.    s( 8) = (  0.0000000  1.0000000  0.0000000 )
                  (  1.0000000  0.0000000  0.0000000 )
                  (  0.0000000  0.0000000  1.0000000 )

   Cartesian axes

     site n.     atom                  positions (alat units)
         1           Ag  tau(   1) = (   0.0000000   0.0000000   2.6384581  )
         2           Ag  tau(   2) = (   0.5000000   0.0000000   2.6384581  )
         3           Ag  tau(   3) = (   0.0000000   0.5000000   2.6384581  )
         4           Ag  tau(   4) = (   0.5000000   0.5000000   2.6384581  )
         5           Ag  tau(   5) = (   0.2500000   0.2500000   2.9861117  )
         6           Ag  tau(   6) = (   0.7500000   0.2500000   2.9861117  )
         7           Ag  tau(   7) = (   0.2500000   0.7500000   2.9861117  )
         8           Ag  tau(   8) = (   0.7500000   0.7500000   2.9861117  )
         9           Ag  tau(   9) = (   0.0000000   0.0000000   3.3455743  )
        10           Ag  tau(  10) = (   0.5000000   0.0000000   3.3455743  )
        11           Ag  tau(  11) = (   0.0000000   0.5000000   3.3455743  )
        12           Ag  tau(  12) = (   0.5000000   0.5000000   3.3455743  )
        13           Ni  tau(  13) = (   0.2500000   0.2500000   3.7051508  )
        14           Ni  tau(  14) = (   0.7500000   0.2500000   3.7051508  )
        15           Ni  tau(  15) = (   0.2500000   0.7500000   3.7051508  )
        16           Ni  tau(  16) = (   0.7500000   0.7500000   3.7051508  )
        17           Ag  tau(  17) = (   0.0000000   0.0000000   4.0558590  )
        18           Ag  tau(  18) = (   0.5000000   0.0000000   4.0558590  )
        19           Ag  tau(  19) = (   0.0000000   0.5000000   4.0558590  )
        20           Ag  tau(  20) = (   0.5000000   0.5000000   4.0558590  )

   Crystallographic axes

     site n.     atom                  positions (cryst. coord.)
         1           Ag  tau(   1) = (  0.0000000  0.0000000  0.3943218  )
         2           Ag  tau(   2) = (  0.5000000  0.0000000  0.3943218  )
         3           Ag  tau(   3) = (  0.0000000  0.5000000  0.3943218  )
         4           Ag  tau(   4) = (  0.5000000  0.5000000  0.3943218  )
         5           Ag  tau(   5) = (  0.2500000  0.2500000  0.4462791  )
         6           Ag  tau(   6) = (  0.7500000  0.2500000  0.4462791  )
         7           Ag  tau(   7) = (  0.2500000  0.7500000  0.4462791  )
         8           Ag  tau(   8) = (  0.7500000  0.7500000  0.4462791  )
         9           Ag  tau(   9) = (  0.0000000  0.0000000  0.5000014  )
        10           Ag  tau(  10) = (  0.5000000  0.0000000  0.5000014  )
        11           Ag  tau(  11) = (  0.0000000  0.5000000  0.5000014  )
        12           Ag  tau(  12) = (  0.5000000  0.5000000  0.5000014  )
        13           Ni  tau(  13) = (  0.2500000  0.2500000  0.5537407  )
        14           Ni  tau(  14) = (  0.7500000  0.2500000  0.5537407  )
        15           Ni  tau(  15) = (  0.2500000  0.7500000  0.5537407  )
        16           Ni  tau(  16) = (  0.7500000  0.7500000  0.5537407  )
        17           Ag  tau(  17) = (  0.0000000  0.0000000  0.6061546  )
        18           Ag  tau(  18) = (  0.5000000  0.0000000  0.6061546  )
        19           Ag  tau(  19) = (  0.0000000  0.5000000  0.6061546  )
        20           Ag  tau(  20) = (  0.5000000  0.5000000  0.6061546  )

     number of k points=     6  Marzari-Vanderbilt smearing, width (Ry)=  0.0220
                       cart. coord. in units 2pi/alat
        k(    1) = (   0.0000000   0.0000000   0.0000000), wk =   0.0625000
        k(    2) = (   0.0000000   0.2500000   0.0000000), wk =   0.2500000
        k(    3) = (   0.0000000  -0.5000000   0.0000000), wk =   0.1250000
        k(    4) = (   0.2500000   0.2500000   0.0000000), wk =   0.2500000
        k(    5) = (   0.2500000  -0.5000000   0.0000000), wk =   0.2500000
        k(    6) = (  -0.5000000  -0.5000000   0.0000000), wk =   0.0625000

                       cryst. coord.
        k(    1) = (   0.0000000   0.0000000   0.0000000), wk =   0.0625000
        k(    2) = (   0.0000000   0.2500000   0.0000000), wk =   0.2500000
        k(    3) = (   0.0000000  -0.5000000   0.0000000), wk =   0.1250000
        k(    4) = (   0.2500000   0.2500000   0.0000000), wk =   0.2500000
        k(    5) = (   0.2500000  -0.5000000   0.0000000), wk =   0.2500000
        k(    6) = (  -0.5000000  -0.5000000   0.0000000), wk =   0.0625000

     Atomic positions and unit cell read from directory:
     ../out/alloy_100.save/

     Generating pointlists ...
     new r_m :   0.2045 (alat units)  2.1974 (a.u.) for type    1
     new r_m :   0.2054 (alat units)  2.2069 (a.u.) for type    2

     The initial density is read from file :
     ../out/alloy_100.save/charge-density

     Starting wfcs from file

     Self-consistent Calculation

     iteration #  1     ecut=    98.00 Ry     beta= 0.70
     Davidson diagonalization with overlap

     ethr =  1.00E-05,  avg # of iterations =  8.9

     Threshold (ethr) on eigenvalues was too large:
     Diagonalizing with lowered threshold

     Davidson diagonalization with overlap

[...]

     negative rho (up, down):  4.433E-06 4.271E-06

     total energy              =   -6297.32127889 Ry
     estimated scf accuracy    <       0.00326610 Ry

     total magnetization       =     2.10 Bohr mag/cell
     absolute magnetization    =     2.51 Bohr mag/cell

[...]

     Magnetic moment per site  (integrated on atomic sphere of radius R)
     atom   1 (R=0.205)  charge= 17.5220  magn=  0.0027
     atom   2 (R=0.205)  charge= 17.5220  magn=  0.0027
     atom   3 (R=0.205)  charge= 17.5220  magn=  0.0027
     atom   4 (R=0.205)  charge= 17.5220  magn=  0.0027
     atom   5 (R=0.205)  charge= 17.5706  magn= -0.0003
     atom   6 (R=0.205)  charge= 17.5706  magn= -0.0003
     atom   7 (R=0.205)  charge= 17.5706  magn= -0.0003
     atom   8 (R=0.205)  charge= 17.5706  magn= -0.0003
     atom   9 (R=0.205)  charge= 17.5274  magn= -0.0033
     atom  10 (R=0.205)  charge= 17.5274  magn= -0.0033
     atom  11 (R=0.205)  charge= 17.5274  magn= -0.0033
     atom  12 (R=0.205)  charge= 17.5274  magn= -0.0033
     atom  13 (R=0.205)  charge= 17.0568  magn=  0.5694
     atom  14 (R=0.205)  charge= 17.0568  magn=  0.5694
     atom  15 (R=0.205)  charge= 17.0568  magn=  0.5694
     atom  16 (R=0.205)  charge= 17.0568  magn=  0.5694
     atom  17 (R=0.205)  charge= 17.4773  magn= -0.0023
     atom  18 (R=0.205)  charge= 17.4773  magn= -0.0023
     atom  19 (R=0.205)  charge= 17.4773  magn= -0.0023
     atom  20 (R=0.205)  charge= 17.4773  magn= -0.0023

     End of self-consistent calculation

 ------ SPIN UP ------------

          k = 0.0000 0.0000 0.0000 (135767 PWs)   bands (ev):

  -101.2021-101.2005-101.2005-101.1988 -90.8208 -90.8130 -90.8130 -90.8056
   -90.5723 -90.5652 -90.5652 -90.5579 -90.5172 -90.5100 -90.5100 -90.5027
[...]
     1.0251   1.0251   1.0251   1.0251   1.0820   1.0820   1.0820   1.0820
     1.0666   1.0666   1.0666   1.0666   0.0419   0.0419   0.0419   0.0419
     0.0000   0.0000   0.0000   0.0000   0.0000   0.0000   0.0000   0.0000
     0.0000   0.0000   0.0000   0.0000   0.0000   0.0000   0.0000   0.0000
     0.0000   0.0000   0.0000   0.0000   0.0000   0.0000   0.0000   0.0000
     0.0000   0.0000   0.0000   0.0000   0.0000   0.0000   0.0000   0.0000
     0.0000   0.0000

     the Fermi energy is     1.1412 ev

!    total energy              =   -6297.43410950 Ry
     estimated scf accuracy    <          1.2E-11 Ry
     smearing contrib. (-TS)   =       0.02300918 Ry
     internal energy E=F+TS    =   -6297.45711868 Ry

     The total energy is F=E-TS. E is the sum of the following terms:
     one-electron contribution = -108568.24314277 Ry
     hartree contribution      =   54280.23106712 Ry
     xc contribution           =    -905.74123523 Ry
     ewald contribution        =   48896.29619220 Ry

     total magnetization       =     1.31 Bohr mag/cell
     absolute magnetization    =     1.70 Bohr mag/cell

     convergence has been achieved in   8 iterations

     Forces acting on atoms (cartesian axes, Ry/au):

     atom    1 type  1   force =     0.00000000    0.00000000    0.00001695
     atom    2 type  1   force =     0.00000000    0.00000000    0.00001695
     atom    3 type  1   force =     0.00000000    0.00000000    0.00001695
     atom    4 type  1   force =     0.00000000    0.00000000    0.00001695
     atom    5 type  1   force =    -0.00000000   -0.00000000    0.00000775
     atom    6 type  1   force =     0.00000000   -0.00000000    0.00000775
     atom    7 type  1   force =    -0.00000000    0.00000000    0.00000775
     atom    8 type  1   force =     0.00000000    0.00000000    0.00000775
     atom    9 type  1   force =     0.00000000    0.00000000   -0.00002400
     atom   10 type  1   force =     0.00000000    0.00000000   -0.00002400
     atom   11 type  1   force =     0.00000000    0.00000000   -0.00002400
     atom   12 type  1   force =     0.00000000    0.00000000   -0.00002400
     atom   13 type  2   force =    -0.00000000   -0.00000000    0.00000710
     atom   14 type  2   force =     0.00000000   -0.00000000    0.00000710
     atom   15 type  2   force =    -0.00000000    0.00000000    0.00000710
     atom   16 type  2   force =     0.00000000    0.00000000    0.00000710
     atom   17 type  1   force =     0.00000000    0.00000000   -0.00000780
     atom   18 type  1   force =     0.00000000    0.00000000   -0.00000780
     atom   19 type  1   force =     0.00000000    0.00000000   -0.00000780
     atom   20 type  1   force =     0.00000000    0.00000000   -0.00000780
     The non-local contrib.  to forces
     atom    1 type  1   force =     0.00000000    0.00000000   -0.23222638
     atom    2 type  1   force =     0.00000000    0.00000000   -0.23222638
     atom    3 type  1   force =     0.00000000    0.00000000   -0.23222638
     atom    4 type  1   force =     0.00000000    0.00000000   -0.23222639
     atom    5 type  1   force =     0.00000000    0.00000000   -0.01754756
     atom    6 type  1   force =    -0.00000000    0.00000000   -0.01754756
     atom    7 type  1   force =     0.00000000   -0.00000000   -0.01754756
     atom    8 type  1   force =    -0.00000000   -0.00000000   -0.01754756
     atom    9 type  1   force =     0.00000000    0.00000000   -0.17669349
     atom   10 type  1   force =     0.00000000    0.00000000   -0.17669349
     atom   11 type  1   force =     0.00000000    0.00000000   -0.17669349
     atom   12 type  1   force =     0.00000000    0.00000000   -0.17669348
     atom   13 type  2   force =     0.00000003    0.00000003   -0.03096349
     atom   14 type  2   force =    -0.00000003    0.00000003   -0.03096349
     atom   15 type  2   force =     0.00000003   -0.00000003   -0.03096349
     atom   16 type  2   force =    -0.00000003   -0.00000003   -0.03096349
     atom   17 type  1   force =     0.00000000    0.00000000    0.37916426
     atom   18 type  1   force =     0.00000000    0.00000000    0.37916423
     atom   19 type  1   force =     0.00000000    0.00000000    0.37916423
     atom   20 type  1   force =     0.00000000    0.00000000    0.37916421
     The ionic contribution  to forces
     atom    1 type  1   force =     0.00000000    0.00000000 -457.87682170
     atom    2 type  1   force =    -0.00000000    0.00000000 -457.87682202
     atom    3 type  1   force =     0.00000000   -0.00000000 -457.87682202
     atom    4 type  1   force =    -0.00000000   -0.00000000 -457.87682237
     atom    5 type  1   force =     0.00000031    0.00000031 -232.39442360
     atom    6 type  1   force =    -0.00000031    0.00000031 -232.39442360
     atom    7 type  1   force =     0.00000031   -0.00000031 -232.39442360
     atom    8 type  1   force =    -0.00000031   -0.00000031 -232.39442360
     atom    9 type  1   force =     0.00000000    0.00000000    3.72201042
     atom   10 type  1   force =    -0.00000000    0.00000000    3.72202153
     atom   11 type  1   force =     0.00000000   -0.00000000    3.72202153
     atom   12 type  1   force =    -0.00000000   -0.00000000    3.72203107
     atom   13 type  2   force =     0.00000267    0.00000267  224.17558457
     atom   14 type  2   force =    -0.00000267    0.00000267  224.17558457
     atom   15 type  2   force =     0.00000267   -0.00000267  224.17558457
     atom   16 type  2   force =    -0.00000267   -0.00000267  224.17558457
     atom   17 type  1   force =     0.00000000    0.00000000  462.37365159
     atom   18 type  1   force =    -0.00000000    0.00000000  462.37363863
     atom   19 type  1   force =     0.00000000   -0.00000000  462.37363863
     atom   20 type  1   force =    -0.00000000   -0.00000000  462.37363086
     The local contribution  to forces
     atom    1 type  1   force =     0.00000000    0.00000000  458.09349464
     atom    2 type  1   force =    -0.00000001    0.00000000  458.09349496
     atom    3 type  1   force =     0.00000000   -0.00000001  458.09349496
     atom    4 type  1   force =    -0.00000001   -0.00000001  458.09349532
     atom    5 type  1   force =    -0.00000033   -0.00000033  232.41140600
     atom    6 type  1   force =     0.00000030   -0.00000033  232.41140600
     atom    7 type  1   force =    -0.00000033    0.00000030  232.41140600
     atom    8 type  1   force =     0.00000030    0.00000030  232.41140600
     atom    9 type  1   force =     0.00000000    0.00000000   -3.55640044
     atom   10 type  1   force =    -0.00000001    0.00000000   -3.55641156
     atom   11 type  1   force =     0.00000000   -0.00000001   -3.55641156
     atom   12 type  1   force =    -0.00000001   -0.00000001   -3.55642111
     atom   13 type  2   force =    -0.00000272   -0.00000272 -224.14624733
     atom   14 type  2   force =     0.00000268   -0.00000272 -224.14624733
     atom   15 type  2   force =    -0.00000272    0.00000268 -224.14624733
     atom   16 type  2   force =     0.00000268    0.00000268 -224.14624733
     atom   17 type  1   force =     0.00000000    0.00000000 -462.72767508
     atom   18 type  1   force =    -0.00000001   -0.00000000 -462.72766208
     atom   19 type  1   force =     0.00000000   -0.00000001 -462.72766208
     atom   20 type  1   force =    -0.00000001   -0.00000001 -462.72765430
     The core correction contribution to forces
     atom    1 type  1   force =    -0.00000000   -0.00000000    0.01557105
     atom    2 type  1   force =     0.00000000   -0.00000000    0.01557105
     atom    3 type  1   force =    -0.00000000    0.00000000    0.01557105
     atom    4 type  1   force =     0.00000000    0.00000000    0.01557105
     atom    5 type  1   force =     0.00000000    0.00000000    0.00057263
     atom    6 type  1   force =     0.00000000    0.00000000    0.00057263
     atom    7 type  1   force =     0.00000000    0.00000000    0.00057263
     atom    8 type  1   force =     0.00000000    0.00000000    0.00057263
     atom    9 type  1   force =    -0.00000000   -0.00000000    0.01105906
     atom   10 type  1   force =     0.00000000   -0.00000000    0.01105906
     atom   11 type  1   force =    -0.00000000    0.00000000    0.01105906
     atom   12 type  1   force =     0.00000000    0.00000000    0.01105906
     atom   13 type  2   force =    -0.00000000   -0.00000000    0.00162483
     atom   14 type  2   force =     0.00000000   -0.00000000    0.00162483
     atom   15 type  2   force =    -0.00000000    0.00000000    0.00162483
     atom   16 type  2   force =     0.00000000    0.00000000    0.00162483
     atom   17 type  1   force =    -0.00000000   -0.00000000   -0.02515415
     atom   18 type  1   force =     0.00000000   -0.00000000   -0.02515415
     atom   19 type  1   force =    -0.00000000    0.00000000   -0.02515415
     atom   20 type  1   force =     0.00000000    0.00000000   -0.02515414
     The Hubbard contrib.    to forces
     atom    1 type  1   force =     0.00000000    0.00000000    0.00000000
     atom    2 type  1   force =     0.00000000    0.00000000    0.00000000
     atom    3 type  1   force =     0.00000000    0.00000000    0.00000000
     atom    4 type  1   force =     0.00000000    0.00000000    0.00000000
     atom    5 type  1   force =     0.00000000    0.00000000    0.00000000
     atom    6 type  1   force =     0.00000000    0.00000000    0.00000000
     atom    7 type  1   force =     0.00000000    0.00000000    0.00000000
     atom    8 type  1   force =     0.00000000    0.00000000    0.00000000
     atom    9 type  1   force =     0.00000000    0.00000000    0.00000000
     atom   10 type  1   force =     0.00000000    0.00000000    0.00000000
     atom   11 type  1   force =     0.00000000    0.00000000    0.00000000
     atom   12 type  1   force =     0.00000000    0.00000000    0.00000000
     atom   13 type  2   force =     0.00000000    0.00000000    0.00000000
     atom   14 type  2   force =     0.00000000    0.00000000    0.00000000
     atom   15 type  2   force =     0.00000000    0.00000000    0.00000000
     atom   16 type  2   force =     0.00000000    0.00000000    0.00000000
     atom   17 type  1   force =     0.00000000    0.00000000    0.00000000
     atom   18 type  1   force =     0.00000000    0.00000000    0.00000000
     atom   19 type  1   force =     0.00000000    0.00000000    0.00000000
     atom   20 type  1   force =     0.00000000    0.00000000    0.00000000
     The SCF correction term to forces
     atom    1 type  1   force =     0.00000000    0.00000000    0.00000000
     atom    2 type  1   force =     0.00000000    0.00000000    0.00000000
     atom    3 type  1   force =     0.00000000    0.00000000    0.00000000
     atom    4 type  1   force =     0.00000000    0.00000000    0.00000000
     atom    5 type  1   force =    -0.00000000   -0.00000000   -0.00000009
     atom    6 type  1   force =     0.00000000   -0.00000000   -0.00000009
     atom    7 type  1   force =    -0.00000000    0.00000000   -0.00000009
     atom    8 type  1   force =     0.00000000    0.00000000   -0.00000009
     atom    9 type  1   force =    -0.00000000   -0.00000000    0.00000009
     atom   10 type  1   force =    -0.00000000   -0.00000000    0.00000009
     atom   11 type  1   force =    -0.00000000    0.00000000    0.00000009
     atom   12 type  1   force =     0.00000000    0.00000000    0.00000009
     atom   13 type  2   force =    -0.00000000   -0.00000000    0.00000816
     atom   14 type  2   force =     0.00000000   -0.00000000    0.00000816
     atom   15 type  2   force =    -0.00000000    0.00000000    0.00000816
     atom   16 type  2   force =     0.00000000    0.00000000    0.00000816
     atom   17 type  1   force =     0.00000000    0.00000000    0.00000520
     atom   18 type  1   force =    -0.00000000   -0.00000000    0.00000520
     atom   19 type  1   force =    -0.00000000   -0.00000000    0.00000520
     atom   20 type  1   force =     0.00000000    0.00000000    0.00000520

     Total force =     0.000055     Total SCF correction =     0.000019
     SCF correction compared to forces is large: reduce conv_thr to get better values

     Computing stress (Cartesian axis) and pressure

          total   stress  (Ry/bohr**3)                   (kbar)     P=       -5.52
  -0.00005607   0.00000000   0.00000000           -8.25        0.00        0.00
   0.00000000  -0.00005607   0.00000000            0.00       -8.25        0.00
   0.00000000   0.00000000  -0.00000034            0.00        0.00       -0.05

     kinetic stress (kbar)  27457.37      0.00      0.00
                                0.00  27457.37      0.00
                                0.00      0.00  27534.37

     local   stress (kbar)**********     -0.00     -0.00
                               -0.00**********     -0.00
                               -0.00     -0.001873546.06

     nonloc. stress (kbar)  -2570.59      0.00      0.00
                                0.00  -2570.59      0.00
                                0.00      0.00  -2598.57

     hartree stress (kbar) 944205.68     -0.00      0.00
                               -0.00 944205.68     -0.00
                                0.00     -0.00-926023.49

     exc-cor stress (kbar)   1899.47     -0.00     -0.00
                               -0.00   1899.47     -0.00
                               -0.00     -0.00   1897.95

     corecor stress (kbar)  -6123.73     -0.00     -0.00
                               -0.00  -6123.73     -0.00
                               -0.00     -0.00  -6123.56

     ewald   stress (kbar) 917581.79      0.00      0.00
                                0.00 917581.79      0.00
                                0.00      0.00-968232.81

     hubbard stress (kbar)      0.00      0.00      0.00
                                0.00      0.00      0.00
                                0.00      0.00      0.00

     DFT-D   stress (kbar)      0.00      0.00      0.00
                                0.00      0.00      0.00
                                0.00      0.00      0.00

     XDM     stress (kbar)      0.00      0.00      0.00
                                0.00      0.00      0.00
                                0.00      0.00      0.00

     dft-nl  stress (kbar)      0.00      0.00      0.00
                                0.00      0.00      0.00
                                0.00      0.00      0.00

     TS-vdW  stress (kbar)      0.00      0.00      0.00
                                0.00      0.00      0.00
                                0.00      0.00      0.00

[...]

                                0.00      0.00      0.00

     Energy error            =      7.2E-07 Ry
     Gradient error          =      2.4E-05 Ry/Bohr

     bfgs converged in  25 scf cycles and  24 bfgs steps
     (criteria: energy <  2.0E-04 Ry, force <  1.0E-04 Ry/Bohr)

     End of BFGS Geometry Optimization

     Final energy             =   -6297.4341095003 Ry

     File ../out/alloy_100.bfgs deleted, as requested
Begin final coordinates

ATOMIC_POSITIONS (angstrom)
Ag            0.0000000000        0.0000000000       15.0000000000    0   0   0
Ag            2.8425692604        0.0000000000       15.0000000000    0   0   0
Ag            0.0000000000        2.8425692604       15.0000000000    0   0   0
Ag            2.8425692604        2.8425692604       15.0000000000    0   0   0
Ag            1.4212846410        1.4212846410       17.0127641274
Ag            4.2638538798        1.4212846410       17.0127641274
Ag            1.4212846410        4.2638538798       17.0127641274
Ag            4.2638538798        4.2638538798       17.0127641274
Ag            0.0000000000        0.0000000000       19.0592763922
Ag            2.8425692604        0.0000000000       19.0592764777
Ag            0.0000000000        2.8425692604       19.0592764777
Ag            2.8425692604        2.8425692604       19.0592765429
Ni            1.4212845725        1.4212845725       20.7605399216
Ni            4.2638539483        1.4212845725       20.7605399216
Ni            1.4212845725        4.2638539483       20.7605399216
Ni            4.2638539483        4.2638539483       20.7605399216
Ag            0.0000000000        0.0000000000       22.4201482743
Ag            2.8425692604        0.0000000000       22.4201481502
Ag            0.0000000000        2.8425692604       22.4201481502
Ag            2.8425692604        2.8425692604       22.4201480893
End final coordinates

     Writing all to output data dir ../out/alloy_100.save/

     General routines

     Parallel routines

   This run was terminated on:   7: 1:46  21Mar2022

   JOB DONE.