     Program PWSCF v.7.0 starts on 20Mar2022 at 23:28:10

     R & G space division:  proc/nbgrp/npool/nimage =      90

     Reading input from base.in
Warning: card &CELL ignored
Warning: card / ignored

     Current dimensions of program PWSCF are:
     Max number of different atomic species (ntypx) = 10
     Max number of k-points (npk) =  40000
     Max angular momentum in pseudopotentials (lmaxx) =  4
     Found identity + ( -0.5000  0.0000  0.0000) symmetry
     This is a supercell, fractional translations are disabled
     Message from routine setup:
     using ibrav=0 with symmetry is DISCOURAGED, use correct ibrav instead

     Using Slab Decomposition

     bravais-lattice index     =            0
     lattice parameter (alat)  =      10.7434  a.u.
     unit-cell volume          =    8296.9641 (a.u.)^3
     number of atoms/cell      =           20
     number of atomic types    =            2
     number of electrons       =       376.00
     number of Kohn-Sham states=          226
     kinetic-energy cutoff     =      98.0000  Ry
     charge density cutoff     =    1176.0000  Ry
     scf convergence threshold =      7.0E-06
     mixing beta               =       0.7000
     number of iterations used =            8  local-TF  mixing
     Exchange-correlation= PBESOL
                           (   1   4  10   8   0   0   0)

     celldm(1)=  10.743355  celldm(2)=   0.000000  celldm(3)=   0.000000
     celldm(4)=   0.000000  celldm(5)=   0.000000  celldm(6)=   0.000000

     crystal axes: (cart. coord. in units of alat)
               a(1) = (   1.000000   0.000000   0.000000 )
               a(2) = (   0.000000   1.000000   0.000000 )
               a(3) = (   0.000000   0.000000   6.691130 )

     reciprocal axes: (cart. coord. in units 2 pi/alat)
               b(1) = (  1.000000  0.000000  0.000000 )
               b(2) = (  0.000000  1.000000  0.000000 )
               b(3) = (  0.000000  0.000000  0.149452 )

     PseudoPot. # 1 for Ag read from file:
     ../pseudo/Ag.upf
     MD5 check sum: ad830d0ddad01bb1c4c3455ef2da8ae5
     Pseudo is Norm-conserving + core correction, Zval = 19.0
     Generated using ONCVPSP code by D. R. Hamann
     Using radial grid of 1538 points,  6 beta functions with:
                l(1) =   0
                l(2) =   0
                l(3) =   1
                l(4) =   1
                l(5) =   2
                l(6) =   2

     PseudoPot. # 2 for Ni read from file:
     ../pseudo/Ni.upf
     MD5 check sum: 3ec56ad6bf78c9cc1bbec815420e1c7d
     Pseudo is Norm-conserving + core correction, Zval = 18.0
     Generated using ONCVPSP code by D. R. Hamann
     Using radial grid of 1356 points,  6 beta functions with:
                l(1) =   0
                l(2) =   0
                l(3) =   1
                l(4) =   1
                l(5) =   2
                l(6) =   2

     atomic species   valence    mass     pseudopotential
        Ag            19.00   107.86820     Ag( 1.00)
        Ni            18.00    58.69340     Ni( 1.00)

     Starting magnetic structure
     atomic species   magnetization
        Ag           0.100
        Ni           0.278

      8 Sym. Ops. (no inversion) found

                                    s                        frac. trans.

      isym =  1     identity

 cryst.   s( 1) = (     1          0          0      )
                  (     0          1          0      )
                  (     0          0          1      )

 cart.    s( 1) = (  1.0000000  0.0000000  0.0000000 )
                  (  0.0000000  1.0000000  0.0000000 )
                  (  0.0000000  0.0000000  1.0000000 )

      isym =  2     180 deg rotation - cart. axis [0,0,1]

[...]

      isym =  4      90 deg rotation - cart. axis [0,0,1]

[...]

      isym =  5     inv. 180 deg rotation - cart. axis [0,1,0]

[...]

      isym =  8     inv. 180 deg rotation - cart. axis [1,-1,0]

 cryst.   s( 8) = (     0          1          0      )
                  (     1          0          0      )
                  (     0          0          1      )

 cart.    s( 8) = (  0.0000000  1.0000000  0.0000000 )
                  (  1.0000000  0.0000000  0.0000000 )
                  (  0.0000000  0.0000000  1.0000000 )

   Cartesian axes

     site n.     atom                  positions (alat units)
         1           Ag  tau(   1) = (   0.0000000   0.0000000   2.6384581  )
         2           Ag  tau(   2) = (   0.5000000   0.0000000   2.6384581  )
         3           Ag  tau(   3) = (   0.0000000   0.5000000   2.6384581  )
         4           Ag  tau(   4) = (   0.5000000   0.5000000   2.6384581  )
         5           Ag  tau(   5) = (   0.2500000   0.2500000   2.9861117  )
         6           Ag  tau(   6) = (   0.7500000   0.2500000   2.9861117  )
         7           Ag  tau(   7) = (   0.2500000   0.7500000   2.9861117  )
         8           Ag  tau(   8) = (   0.7500000   0.7500000   2.9861117  )
         9           Ag  tau(   9) = (   0.0000000   0.0000000   3.3455743  )
        10           Ag  tau(  10) = (   0.5000000   0.0000000   3.3455743  )
        11           Ag  tau(  11) = (   0.0000000   0.5000000   3.3455743  )
        12           Ag  tau(  12) = (   0.5000000   0.5000000   3.3455743  )
        13           Ni  tau(  13) = (   0.2500000   0.2500000   3.7051508  )
        14           Ni  tau(  14) = (   0.7500000   0.2500000   3.7051508  )
        15           Ni  tau(  15) = (   0.2500000   0.7500000   3.7051508  )
        16           Ni  tau(  16) = (   0.7500000   0.7500000   3.7051508  )
        17           Ag  tau(  17) = (   0.0000000   0.0000000   4.0558590  )
        18           Ag  tau(  18) = (   0.5000000   0.0000000   4.0558590  )
        19           Ag  tau(  19) = (   0.0000000   0.5000000   4.0558590  )
        20           Ag  tau(  20) = (   0.5000000   0.5000000   4.0558590  )

   Crystallographic axes

     site n.     atom                  positions (cryst. coord.)
         1           Ag  tau(   1) = (  0.0000000  0.0000000  0.3943218  )
         2           Ag  tau(   2) = (  0.5000000  0.0000000  0.3943218  )
         3           Ag  tau(   3) = (  0.0000000  0.5000000  0.3943218  )
         4           Ag  tau(   4) = (  0.5000000  0.5000000  0.3943218  )
         5           Ag  tau(   5) = (  0.2500000  0.2500000  0.4462791  )
         6           Ag  tau(   6) = (  0.7500000  0.2500000  0.4462791  )
         7           Ag  tau(   7) = (  0.2500000  0.7500000  0.4462791  )
         8           Ag  tau(   8) = (  0.7500000  0.7500000  0.4462791  )
         9           Ag  tau(   9) = (  0.0000000  0.0000000  0.5000014  )
        10           Ag  tau(  10) = (  0.5000000  0.0000000  0.5000014  )
        11           Ag  tau(  11) = (  0.0000000  0.5000000  0.5000014  )
        12           Ag  tau(  12) = (  0.5000000  0.5000000  0.5000014  )
        13           Ni  tau(  13) = (  0.2500000  0.2500000  0.5537407  )
        14           Ni  tau(  14) = (  0.7500000  0.2500000  0.5537407  )
        15           Ni  tau(  15) = (  0.2500000  0.7500000  0.5537407  )
        16           Ni  tau(  16) = (  0.7500000  0.7500000  0.5537407  )
        17           Ag  tau(  17) = (  0.0000000  0.0000000  0.6061546  )
        18           Ag  tau(  18) = (  0.5000000  0.0000000  0.6061546  )
        19           Ag  tau(  19) = (  0.0000000  0.5000000  0.6061546  )
        20           Ag  tau(  20) = (  0.5000000  0.5000000  0.6061546  )

     number of k points=     6  Marzari-Vanderbilt smearing, width (Ry)=  0.0220
                       cart. coord. in units 2pi/alat
        k(    1) = (   0.0000000   0.0000000   0.0000000), wk =   0.0625000
        k(    2) = (   0.0000000   0.2500000   0.0000000), wk =   0.2500000
        k(    3) = (   0.0000000  -0.5000000   0.0000000), wk =   0.1250000
        k(    4) = (   0.2500000   0.2500000   0.0000000), wk =   0.2500000
        k(    5) = (   0.2500000  -0.5000000   0.0000000), wk =   0.2500000
        k(    6) = (  -0.5000000  -0.5000000   0.0000000), wk =   0.0625000

                       cryst. coord.
        k(    1) = (   0.0000000   0.0000000   0.0000000), wk =   0.0625000
        k(    2) = (   0.0000000   0.2500000   0.0000000), wk =   0.2500000
        k(    3) = (   0.0000000  -0.5000000   0.0000000), wk =   0.1250000
        k(    4) = (   0.2500000   0.2500000   0.0000000), wk =   0.2500000
        k(    5) = (   0.2500000  -0.5000000   0.0000000), wk =   0.2500000
        k(    6) = (  -0.5000000  -0.5000000   0.0000000), wk =   0.0625000

     Atomic positions and unit cell read from directory:
     ../out/alloy_100.save/
     Message from routine qexsd_readschema :
     xml data file ../out/alloy_100.save/data-file-schema.xml not found
     Nothing found: using input atomic positions and unit cell

     Generating pointlists ...
     new r_m :   0.2045 (alat units)  2.1974 (a.u.) for type    1
     new r_m :   0.2054 (alat units)  2.2069 (a.u.) for type    2
     Cannot read rho : file not found

     Initial potential from superposition of free atoms

     starting charge     375.9925, renormalised to     376.0000

     negative rho (up, down):  5.058E-06 4.030E-06
     Message from routine qexsd_readschema :
     xml data file ../out/alloy_100.save/data-file-schema.xml not found
     Cannot read wfcs: file not found
     Starting wfcs are  200 randomized atomic wfcs +   26 random wfcs

     Self-consistent Calculation

     iteration #  1     ecut=    98.00 Ry     beta= 0.70
     Davidson diagonalization with overlap

     c_bands:  1 eigenvalues not converged
     c_bands:  1 eigenvalues not converged
     c_bands:  1 eigenvalues not converged
     c_bands:  1 eigenvalues not converged
     ethr =  1.00E-05,  avg # of iterations = 19.0

     negative rho (up, down):  2.302E-08 2.288E-08

     total energy              =   -6296.18185460 Ry
     estimated scf accuracy    <      17.73548121 Ry

     total magnetization       =     3.04 Bohr mag/cell
     absolute magnetization    =     4.81 Bohr mag/cell

[...]

     ethr =  4.72E-03,  avg # of iterations =  1.6

[...]

     negative rho (up, down):  1.265E-03 1.264E-03

     total energy              =   -6297.32133156 Ry
     estimated scf accuracy    <       0.00008318 Ry

[...]

     iteration # 15     ecut=    98.00 Ry     beta= 0.70
     Davidson diagonalization with overlap

     ethr =  2.21E-08,  avg # of iterations =  5.9

     Magnetic moment per site  (integrated on atomic sphere of radius R)
     atom   1 (R=0.205)  charge= 17.5220  magn=  0.0027
     atom   2 (R=0.205)  charge= 17.5220  magn=  0.0027
     atom   3 (R=0.205)  charge= 17.5220  magn=  0.0027
     atom   4 (R=0.205)  charge= 17.5220  magn=  0.0027
     atom   5 (R=0.205)  charge= 17.5708  magn= -0.0003
     atom   6 (R=0.205)  charge= 17.5708  magn= -0.0003
     atom   7 (R=0.205)  charge= 17.5708  magn= -0.0003
     atom   8 (R=0.205)  charge= 17.5708  magn= -0.0003
     atom   9 (R=0.205)  charge= 17.5274  magn= -0.0033
     atom  10 (R=0.205)  charge= 17.5274  magn= -0.0033
     atom  11 (R=0.205)  charge= 17.5274  magn= -0.0033
     atom  12 (R=0.205)  charge= 17.5274  magn= -0.0033
[...]

[...]

          k = 0.2500-0.5000 0.0000 (135938 PWs)   bands (ev):

[...]

          k =-0.5000-0.5000 0.0000 (136072 PWs)   bands (ev):

[...]

     occupation numbers
     1.0000   1.0000   1.0000   1.0000   1.0000   1.0000   1.0000   1.0000
     1.0000   1.0000   1.0000   1.0000   1.0000   1.0000   1.0000   1.0000
     1.0000   1.0000   1.0000   1.0000   1.0000   1.0000   1.0000   1.0000
     1.0000   1.0000   1.0000   1.0000   1.0000   1.0000   1.0000   1.0000
     1.0000   1.0000   1.0000   1.0000   1.0000   1.0000   1.0000   1.0000
     1.0000   1.0000   1.0000   1.0000   1.0000   1.0000   1.0000   1.0000
     1.0000   1.0000   1.0000   1.0000   1.0000   1.0000   1.0000   1.0000
     1.0000   1.0000   1.0000   1.0000   1.0000   1.0000   1.0000   1.0000
     1.0000   1.0000   1.0000   1.0000   1.0000   1.0000   1.0000   1.0000
     1.0000   1.0000   1.0000   1.0000   1.0000   1.0000   1.0000   1.0000
     1.0000   1.0000   1.0000   1.0000   1.0000   1.0000   1.0000   1.0000
     1.0000   1.0000   1.0000   1.0000   1.0000   1.0000   1.0000   1.0000
     1.0000   1.0000   1.0000   1.0000   1.0000   1.0000   1.0000   1.0000
     1.0000   1.0000   1.0000   1.0000   1.0000   1.0000   1.0000   1.0000
     1.0000   1.0000   1.0000   1.0000   1.0000   1.0000   1.0000   1.0000
     1.0000   1.0000   1.0000   1.0000   1.0000   1.0000   1.0000   1.0000
     1.0000   1.0000   1.0000   1.0000   1.0000   1.0000   1.0000   1.0000
     1.0000   1.0000   1.0000   1.0000   1.0000   1.0000   1.0000   1.0000
     1.0000   1.0000   1.0000   1.0000   1.0000   1.0000   1.0000   1.0000
     1.0000   1.0000   1.0000   1.0000   1.0000   1.0000   1.0000   1.0000
     1.0000   1.0000   1.0000   1.0000   1.0000   1.0000   1.0000   1.0000
     1.0000   1.0000   1.0000   1.0000   1.0244   1.0244   1.0244   1.0244
     1.0327   1.0327   1.0327   1.0327   1.0736   1.0736   1.0736   1.0736
     1.0638   1.0638   1.0638   1.0638   0.1935   0.1935   0.1935   0.1935
     0.0000   0.0000   0.0000   0.0000   0.0000   0.0000   0.0000   0.0000
     0.0000   0.0000   0.0000   0.0000   0.0000   0.0000   0.0000   0.0000
     0.0000   0.0000   0.0000   0.0000   0.0000   0.0000   0.0000   0.0000
     0.0000   0.0000   0.0000   0.0000   0.0000   0.0000   0.0000   0.0000
     0.0000   0.0000

     the Fermi energy is     1.1799 ev

!    total energy              =   -6297.32132723 Ry
     estimated scf accuracy    <       0.00000486 Ry
     smearing contrib. (-TS)   =       0.00982566 Ry
     internal energy E=F+TS    =   -6297.33115289 Ry

     The total energy is F=E-TS. E is the sum of the following terms:
     one-electron contribution = -103036.41804184 Ry
     hartree contribution      =   51515.38642941 Ry
     xc contribution           =    -905.01812006 Ry
     ewald contribution        =   46128.71857959 Ry

     total magnetization       =     2.15 Bohr mag/cell
     absolute magnetization    =     2.55 Bohr mag/cell

     convergence has been achieved in  15 iterations

     Forces acting on atoms (cartesian axes, Ry/au):

     atom    1 type  1   force =     0.00000000    0.00000000   -0.00579660
     atom    2 type  1   force =     0.00000000    0.00000000   -0.00579655
     atom    3 type  1   force =     0.00000000    0.00000000   -0.00579655
     atom    4 type  1   force =     0.00000000    0.00000000   -0.00579648
     atom    5 type  1   force =     0.00000003    0.00000003    0.00487382
     atom    6 type  1   force =    -0.00000003    0.00000003    0.00487382
     atom    7 type  1   force =     0.00000003   -0.00000003    0.00487382
     atom    8 type  1   force =    -0.00000003   -0.00000003    0.00487382
     atom    9 type  1   force =     0.00000000    0.00000000    0.03714929
     atom   10 type  1   force =     0.00000000    0.00000000    0.03714928
     atom   11 type  1   force =     0.00000000    0.00000000    0.03714928
     atom   12 type  1   force =     0.00000000    0.00000000    0.03714917
     atom   13 type  2   force =    -0.00000002   -0.00000002    0.00201452
     atom   14 type  2   force =     0.00000002   -0.00000002    0.00201452
     atom   15 type  2   force =    -0.00000002    0.00000002    0.00201452
     atom   16 type  2   force =     0.00000002    0.00000002    0.00201452
     atom   17 type  1   force =     0.00000000    0.00000000   -0.03824106
     atom   18 type  1   force =     0.00000000    0.00000000   -0.03824106
     atom   19 type  1   force =     0.00000000    0.00000000   -0.03824106
     atom   20 type  1   force =     0.00000000    0.00000000   -0.03824101
     The non-local contrib.  to forces
     atom    1 type  1   force =     0.00000000    0.00000000   -0.23149330
     atom    2 type  1   force =     0.00000000    0.00000000   -0.23149348
     atom    3 type  1   force =     0.00000000    0.00000000   -0.23149348
     atom    4 type  1   force =     0.00000000    0.00000000   -0.23149332
     atom    5 type  1   force =     0.00000004    0.00000004   -0.01434266
     atom    6 type  1   force =    -0.00000004    0.00000004   -0.01434266
     atom    7 type  1   force =     0.00000004   -0.00000004   -0.01434266
     atom    8 type  1   force =    -0.00000004   -0.00000004   -0.01434266
     atom    9 type  1   force =     0.00000000    0.00000000   -0.09354781
     atom   10 type  1   force =     0.00000000    0.00000000   -0.09354793
     atom   11 type  1   force =     0.00000000    0.00000000   -0.09354793
     atom   12 type  1   force =     0.00000000    0.00000000   -0.09354785
     atom   13 type  2   force =    -0.00000000   -0.00000000   -0.01813560
     atom   14 type  2   force =     0.00000000   -0.00000000   -0.01813560
     atom   15 type  2   force =    -0.00000000    0.00000000   -0.01813560
     atom   16 type  2   force =     0.00000000    0.00000000   -0.01813560
     atom   17 type  1   force =     0.00000000    0.00000000    0.32107421
     atom   18 type  1   force =     0.00000000    0.00000000    0.32107415
     atom   19 type  1   force =     0.00000000    0.00000000    0.32107415
     atom   20 type  1   force =     0.00000000    0.00000000    0.32107420
     The ionic contribution  to forces
     atom    1 type  1   force =     0.00000000    0.00000000 -450.38670876
     atom    2 type  1   force =    -0.00000000    0.00000000 -450.38670530
     atom    3 type  1   force =     0.00000000   -0.00000000 -450.38670530
     atom    4 type  1   force =    -0.00000000   -0.00000000 -450.38670193
     atom    5 type  1   force =     0.00000605    0.00000605 -224.23883483
     atom    6 type  1   force =    -0.00000605    0.00000605 -224.23883483
     atom    7 type  1   force =     0.00000605   -0.00000605 -224.23883483
     atom    8 type  1   force =    -0.00000605   -0.00000605 -224.23883483
     atom    9 type  1   force =     0.00000000    0.00000000    7.23126224
     atom   10 type  1   force =    -0.00000000    0.00000000    7.23126578
     atom   11 type  1   force =     0.00000000   -0.00000000    7.23126578
     atom   12 type  1   force =    -0.00000000   -0.00000000    7.23126559
     atom   13 type  2   force =    -0.00000192   -0.00000192  218.65175374
     atom   14 type  2   force =     0.00000192   -0.00000192  218.65175374
     atom   15 type  2   force =    -0.00000192    0.00000192  218.65175374
     atom   16 type  2   force =     0.00000192    0.00000192  218.65175374
     atom   17 type  1   force =     0.00000000    0.00000000  448.74252782
     atom   18 type  1   force =    -0.00000000    0.00000000  448.74251905
     atom   19 type  1   force =     0.00000000   -0.00000000  448.74251905
     atom   20 type  1   force =    -0.00000000   -0.00000000  448.74252035
     The local contribution  to forces
     atom    1 type  1   force =     0.00000000    0.00000000  450.59627751
     atom    2 type  1   force =    -0.00000001   -0.00000000  450.59627380
     atom    3 type  1   force =     0.00000000   -0.00000001  450.59627380
     atom    4 type  1   force =    -0.00000001   -0.00000001  450.59627038
     atom    5 type  1   force =    -0.00000610   -0.00000610  224.25452661
     atom    6 type  1   force =     0.00000607   -0.00000610  224.25452661
     atom    7 type  1   force =    -0.00000610    0.00000607  224.25452661
     atom    8 type  1   force =     0.00000607    0.00000607  224.25452661
     atom    9 type  1   force =     0.00000000    0.00000000   -7.11155296
     atom   10 type  1   force =    -0.00000001   -0.00000000   -7.11155640
     atom   11 type  1   force =     0.00000000   -0.00000001   -7.11155640
     atom   12 type  1   force =    -0.00000001   -0.00000001   -7.11155627
     atom   13 type  2   force =     0.00000187    0.00000187 -218.63750162
     atom   14 type  2   force =    -0.00000192    0.00000187 -218.63750162
     atom   15 type  2   force =     0.00000187   -0.00000192 -218.63750162
     atom   16 type  2   force =    -0.00000192   -0.00000192 -218.63750162
     atom   17 type  1   force =     0.00000000    0.00000000 -449.08337016
     atom   18 type  1   force =    -0.00000001    0.00000000 -449.08336133
     atom   19 type  1   force =     0.00000000   -0.00000001 -449.08336133
     atom   20 type  1   force =    -0.00000001   -0.00000001 -449.08336250
     The core correction contribution to forces
     atom    1 type  1   force =    -0.00000000   -0.00000000    0.01556351
     atom    2 type  1   force =     0.00000000   -0.00000000    0.01556352
     atom    3 type  1   force =    -0.00000000    0.00000000    0.01556352
     atom    4 type  1   force =     0.00000000    0.00000000    0.01556351
     atom    5 type  1   force =    -0.00000000   -0.00000000    0.00005250
     atom    6 type  1   force =     0.00000000   -0.00000000    0.00005250
     atom    7 type  1   force =    -0.00000000    0.00000000    0.00005250
     atom    8 type  1   force =     0.00000000    0.00000000    0.00005250
     atom    9 type  1   force =    -0.00000000   -0.00000000    0.00624137
     atom   10 type  1   force =     0.00000000   -0.00000000    0.00624138
     atom   11 type  1   force =    -0.00000000    0.00000000    0.00624138
     atom   12 type  1   force =     0.00000000    0.00000000    0.00624136
     atom   13 type  2   force =    -0.00000000   -0.00000000    0.00193243
     atom   14 type  2   force =     0.00000001   -0.00000000    0.00193243
     atom   15 type  2   force =    -0.00000000    0.00000001    0.00193243
     atom   16 type  2   force =     0.00000001    0.00000001    0.00193243
     atom   17 type  1   force =    -0.00000000   -0.00000000   -0.02118622
     atom   18 type  1   force =     0.00000000   -0.00000000   -0.02118622
     atom   19 type  1   force =    -0.00000000    0.00000000   -0.02118622
     atom   20 type  1   force =     0.00000000    0.00000000   -0.02118622
     The Hubbard contrib.    to forces
     atom    1 type  1   force =     0.00000000    0.00000000    0.00000000
     atom    2 type  1   force =     0.00000000    0.00000000    0.00000000
     atom    3 type  1   force =     0.00000000    0.00000000    0.00000000
     atom    4 type  1   force =     0.00000000    0.00000000    0.00000000
     atom    5 type  1   force =     0.00000000    0.00000000    0.00000000
     atom    6 type  1   force =     0.00000000    0.00000000    0.00000000
     atom    7 type  1   force =     0.00000000    0.00000000    0.00000000
     atom    8 type  1   force =     0.00000000    0.00000000    0.00000000
     atom    9 type  1   force =     0.00000000    0.00000000    0.00000000
     atom   10 type  1   force =     0.00000000    0.00000000    0.00000000
     atom   11 type  1   force =     0.00000000    0.00000000    0.00000000
     atom   12 type  1   force =     0.00000000    0.00000000    0.00000000
     atom   13 type  2   force =     0.00000000    0.00000000    0.00000000
     atom   14 type  2   force =     0.00000000    0.00000000    0.00000000
     atom   15 type  2   force =     0.00000000    0.00000000    0.00000000
     atom   16 type  2   force =     0.00000000    0.00000000    0.00000000
     atom   17 type  1   force =     0.00000000    0.00000000    0.00000000
     atom   18 type  1   force =     0.00000000    0.00000000    0.00000000
     atom   19 type  1   force =     0.00000000    0.00000000    0.00000000
     atom   20 type  1   force =     0.00000000    0.00000000    0.00000000
     The SCF correction term to forces
     atom    1 type  1   force =     0.00000000    0.00000000    0.00000000
     atom    2 type  1   force =     0.00000000    0.00000000    0.00000000
     atom    3 type  1   force =     0.00000000    0.00000000    0.00000000
     atom    4 type  1   force =     0.00000000    0.00000000    0.00000000
     atom    5 type  1   force =     0.00000003    0.00000003    0.00348763
     atom    6 type  1   force =    -0.00000003    0.00000003    0.00348763
     atom    7 type  1   force =     0.00000003   -0.00000003    0.00348763
     atom    8 type  1   force =    -0.00000003   -0.00000003    0.00348763
     atom    9 type  1   force =     0.00000000    0.00000000    0.00476188
     atom   10 type  1   force =    -0.00000000    0.00000000    0.00476188
     atom   11 type  1   force =     0.00000000   -0.00000000    0.00476188
     atom   12 type  1   force =    -0.00000000   -0.00000000    0.00476176
     atom   13 type  2   force =     0.00000002    0.00000002    0.00398099
     atom   14 type  2   force =    -0.00000002    0.00000002    0.00398099
     atom   15 type  2   force =     0.00000002   -0.00000002    0.00398099
     atom   16 type  2   force =    -0.00000002   -0.00000002    0.00398099
     atom   17 type  1   force =     0.00000000    0.00000000    0.00272871
     atom   18 type  1   force =    -0.00000000    0.00000000    0.00272872
     atom   19 type  1   force =     0.00000000   -0.00000000    0.00272872
     atom   20 type  1   force =    -0.00000000   -0.00000000    0.00272858

     Total force =     0.107150     Total SCF correction =     0.015249
     SCF correction compared to forces is large: reduce conv_thr to get better values

     Computing stress (Cartesian axis) and pressure

          total   stress  (Ry/bohr**3)                   (kbar)     P=      -21.86
  -0.00016088   0.00000000   0.00000000          -23.67        0.00        0.00
   0.00000000  -0.00016088   0.00000000            0.00      -23.67        0.00
   0.00000000   0.00000000  -0.00012399            0.00        0.00      -18.24

     kinetic stress (kbar)  27453.30      0.00      0.00
                                0.00  27453.30      0.00
                                0.00      0.00  27533.03

     local   stress (kbar)**********     -0.00      0.00
                               -0.00**********      0.00
                                0.00      0.001771490.01

     nonloc. stress (kbar)  -2587.86      0.00      0.00
                                0.00  -2587.86      0.00
                                0.00      0.00  -2615.72

     hartree stress (kbar) 894410.02     -0.00      0.00
                               -0.00 894410.02      0.00
                                0.00      0.00-875452.84

     exc-cor stress (kbar)   1902.90     -0.00     -0.00
                               -0.00   1902.90     -0.00
                               -0.00     -0.00   1901.32

     corecor stress (kbar)  -6123.48     -0.00     -0.00
                               -0.00  -6123.48     -0.00
                               -0.00     -0.00  -6123.45

     ewald   stress (kbar) 867306.12     -0.00     -0.00
                               -0.00 867306.12     -0.00
                               -0.00     -0.00-916750.59

     hubbard stress (kbar)      0.00      0.00      0.00
                                0.00      0.00      0.00
                                0.00      0.00      0.00

     DFT-D   stress (kbar)      0.00      0.00      0.00
                                0.00      0.00      0.00
                                0.00      0.00      0.00

     XDM     stress (kbar)      0.00      0.00      0.00
                                0.00      0.00      0.00
                                0.00      0.00      0.00

     dft-nl  stress (kbar)      0.00      0.00      0.00
                                0.00      0.00      0.00
                                0.00      0.00      0.00

     TS-vdW  stress (kbar)      0.00      0.00      0.00
                                0.00      0.00      0.00
                                0.00      0.00      0.00

[...]

                                0.00      0.00      0.00

     Writing all to output data dir ../out/alloy_100.save/

     General routines

     Parallel routines

   This run was terminated on:  23:38:19  20Mar2022

   JOB DONE.