     Program PWSCF v.7.0 starts on 21Mar2022 at  3: 0:13

     R & G space division:  proc/nbgrp/npool/nimage =      90

     Reading input from base.in
Warning: card &CELL ignored
Warning: card / ignored

     Current dimensions of program PWSCF are:
     Max number of different atomic species (ntypx) = 10
     Max number of k-points (npk) =  40000
     Max angular momentum in pseudopotentials (lmaxx) =  4
     Found identity + ( -0.5000  0.0000  0.0000) symmetry
     This is a supercell, fractional translations are disabled
     Message from routine setup:
     using ibrav=0 with symmetry is DISCOURAGED, use correct ibrav instead

     Using Slab Decomposition

     bravais-lattice index     =            0
     lattice parameter (alat)  =      10.7434  a.u.
     unit-cell volume          =    8296.9641 (a.u.)^3
     number of atoms/cell      =           20
     number of atomic types    =            1
     number of electrons       =       380.00
     number of Kohn-Sham states=          228
     kinetic-energy cutoff     =      98.0000  Ry
     charge density cutoff     =    1176.0000  Ry
     scf convergence threshold =      4.0E-09
     mixing beta               =       0.7000
     number of iterations used =            8  local-TF  mixing
     energy convergence thresh.=      2.0E-04
     force convergence thresh. =      1.0E-04
     Exchange-correlation= PBESOL
                           (   1   4  10   8   0   0   0)
     nstep                     =           50

     celldm(1)=  10.743355  celldm(2)=   0.000000  celldm(3)=   0.000000
     celldm(4)=   0.000000  celldm(5)=   0.000000  celldm(6)=   0.000000

     crystal axes: (cart. coord. in units of alat)
               a(1) = (   1.000000   0.000000   0.000000 )
               a(2) = (   0.000000   1.000000   0.000000 )
               a(3) = (   0.000000   0.000000   6.691130 )

     reciprocal axes: (cart. coord. in units 2 pi/alat)
               b(1) = (  1.000000  0.000000  0.000000 )
               b(2) = (  0.000000  1.000000  0.000000 )
               b(3) = (  0.000000  0.000000  0.149452 )

     PseudoPot. # 1 for Ag read from file:
     ../pseudo/Ag.upf
     MD5 check sum: ad830d0ddad01bb1c4c3455ef2da8ae5
     Pseudo is Norm-conserving + core correction, Zval = 19.0
     Generated using ONCVPSP code by D. R. Hamann
     Using radial grid of 1538 points,  6 beta functions with:
                l(1) =   0
                l(2) =   0
                l(3) =   1
                l(4) =   1
                l(5) =   2
                l(6) =   2

     atomic species   valence    mass     pseudopotential
        Ag            19.00   107.86820     Ag( 1.00)

      8 Sym. Ops. (no inversion) found

                                    s                        frac. trans.

      isym =  1     identity

 cryst.   s( 1) = (     1          0          0      )
                  (     0          1          0      )
                  (     0          0          1      )

 cart.    s( 1) = (  1.0000000  0.0000000  0.0000000 )
                  (  0.0000000  1.0000000  0.0000000 )
                  (  0.0000000  0.0000000  1.0000000 )

      isym =  2     180 deg rotation - cart. axis [0,0,1]

[...]

      isym =  4      90 deg rotation - cart. axis [0,0,1]

[...]

      isym =  5     inv. 180 deg rotation - cart. axis [0,1,0]

[...]

      isym =  8     inv. 180 deg rotation - cart. axis [1,-1,0]

 cryst.   s( 8) = (     0          1          0      )
                  (     1          0          0      )
                  (     0          0          1      )

 cart.    s( 8) = (  0.0000000  1.0000000  0.0000000 )
                  (  1.0000000  0.0000000  0.0000000 )
                  (  0.0000000  0.0000000  1.0000000 )

   Cartesian axes

     site n.     atom                  positions (alat units)
         1           Ag  tau(   1) = (   0.0000000   0.0000000   2.6384581  )
         2           Ag  tau(   2) = (   0.5000000   0.0000000   2.6384581  )
         3           Ag  tau(   3) = (   0.0000000   0.5000000   2.6384581  )
         4           Ag  tau(   4) = (   0.5000000   0.5000000   2.6384581  )
         5           Ag  tau(   5) = (   0.2500000   0.2500000   2.9861117  )
         6           Ag  tau(   6) = (   0.7500000   0.2500000   2.9861117  )
         7           Ag  tau(   7) = (   0.2500000   0.7500000   2.9861117  )
         8           Ag  tau(   8) = (   0.7500000   0.7500000   2.9861117  )
         9           Ag  tau(   9) = (   0.0000000   0.0000000   3.3455743  )
        10           Ag  tau(  10) = (   0.5000000   0.0000000   3.3455743  )
        11           Ag  tau(  11) = (   0.0000000   0.5000000   3.3455743  )
        12           Ag  tau(  12) = (   0.5000000   0.5000000   3.3455743  )
        13           Ag  tau(  13) = (   0.2500000   0.2500000   3.7051508  )
        14           Ag  tau(  14) = (   0.7500000   0.2500000   3.7051508  )
        15           Ag  tau(  15) = (   0.2500000   0.7500000   3.7051508  )
        16           Ag  tau(  16) = (   0.7500000   0.7500000   3.7051508  )
        17           Ag  tau(  17) = (   0.0000000   0.0000000   4.0558590  )
        18           Ag  tau(  18) = (   0.5000000   0.0000000   4.0558590  )
        19           Ag  tau(  19) = (   0.0000000   0.5000000   4.0558590  )
        20           Ag  tau(  20) = (   0.5000000   0.5000000   4.0558590  )

   Crystallographic axes

     site n.     atom                  positions (cryst. coord.)
         1           Ag  tau(   1) = (  0.0000000  0.0000000  0.3943218  )
         2           Ag  tau(   2) = (  0.5000000  0.0000000  0.3943218  )
         3           Ag  tau(   3) = (  0.0000000  0.5000000  0.3943218  )
         4           Ag  tau(   4) = (  0.5000000  0.5000000  0.3943218  )
         5           Ag  tau(   5) = (  0.2500000  0.2500000  0.4462791  )
         6           Ag  tau(   6) = (  0.7500000  0.2500000  0.4462791  )
         7           Ag  tau(   7) = (  0.2500000  0.7500000  0.4462791  )
         8           Ag  tau(   8) = (  0.7500000  0.7500000  0.4462791  )
         9           Ag  tau(   9) = (  0.0000000  0.0000000  0.5000014  )
        10           Ag  tau(  10) = (  0.5000000  0.0000000  0.5000014  )
        11           Ag  tau(  11) = (  0.0000000  0.5000000  0.5000014  )
        12           Ag  tau(  12) = (  0.5000000  0.5000000  0.5000014  )
        13           Ag  tau(  13) = (  0.2500000  0.2500000  0.5537407  )
        14           Ag  tau(  14) = (  0.7500000  0.2500000  0.5537407  )
        15           Ag  tau(  15) = (  0.2500000  0.7500000  0.5537407  )
        16           Ag  tau(  16) = (  0.7500000  0.7500000  0.5537407  )
        17           Ag  tau(  17) = (  0.0000000  0.0000000  0.6061546  )
        18           Ag  tau(  18) = (  0.5000000  0.0000000  0.6061546  )
        19           Ag  tau(  19) = (  0.0000000  0.5000000  0.6061546  )
        20           Ag  tau(  20) = (  0.5000000  0.5000000  0.6061546  )

     number of k points=     6  Marzari-Vanderbilt smearing, width (Ry)=  0.0220
                       cart. coord. in units 2pi/alat
        k(    1) = (   0.0000000   0.0000000   0.0000000), wk =   0.1250000
        k(    2) = (   0.0000000   0.2500000   0.0000000), wk =   0.5000000
        k(    3) = (   0.0000000  -0.5000000   0.0000000), wk =   0.2500000
        k(    4) = (   0.2500000   0.2500000   0.0000000), wk =   0.5000000
        k(    5) = (   0.2500000  -0.5000000   0.0000000), wk =   0.5000000
        k(    6) = (  -0.5000000  -0.5000000   0.0000000), wk =   0.1250000

                       cryst. coord.
        k(    1) = (   0.0000000   0.0000000   0.0000000), wk =   0.1250000
        k(    2) = (   0.0000000   0.2500000   0.0000000), wk =   0.5000000
        k(    3) = (   0.0000000  -0.5000000   0.0000000), wk =   0.2500000
        k(    4) = (   0.2500000   0.2500000   0.0000000), wk =   0.5000000
        k(    5) = (   0.2500000  -0.5000000   0.0000000), wk =   0.5000000
        k(    6) = (  -0.5000000  -0.5000000   0.0000000), wk =   0.1250000

     Atomic positions and unit cell read from directory:
     ../out/pure_100.save/

     The initial density is read from file :
     ../out/pure_100.save/charge-density

     Starting wfcs from file

     Self-consistent Calculation

     iteration #  1     ecut=    98.00 Ry     beta= 0.70
     Davidson diagonalization with overlap

     ethr =  1.00E-05,  avg # of iterations =  6.5

     Threshold (ethr) on eigenvalues was too large:
     Diagonalizing with lowered threshold

     Davidson diagonalization with overlap

[...]

     negative rho (up, down):  4.521E-07 0.000E+00

     total energy              =   -6195.58882420 Ry
     estimated scf accuracy    <       0.00003277 Ry

[...]

     End of self-consistent calculation

          k = 0.0000 0.0000 0.0000 (135767 PWs)   bands (ev):

   -90.3467 -90.3386 -90.3386 -90.3372 -90.3313 -90.3292 -90.3292 -90.3218
   -90.2476 -90.2411 -90.2411 -90.2338 -90.0475 -90.0403 -90.0403 -90.0369
   -90.0330 -90.0297 -90.0297 -90.0224 -53.9199 -53.9199 -53.9041 -53.9041
   -53.9020 -53.9020 -53.8898 -53.8898 -53.8777 -53.8706 -53.8706 -53.8453
   -53.8355 -53.8355 -53.8239 -53.8137 -53.8029 -53.8029 -53.7921 -53.7921
   -53.7899 -53.7899 -53.7804 -53.7804 -53.7746 -53.7746 -53.7618 -53.7618
   -53.7399 -53.7339 -53.7339 -53.7274 -53.6854 -53.6854 -53.6824 -53.6824
   -53.6033 -53.6033 -53.5987 -53.5987 -53.5934 -53.5934 -53.5883 -53.5883
   -53.5368 -53.5312 -53.5312 -53.5276 -53.5262 -53.5205 -53.5205 -53.5163
   -53.5056 -53.5056 -53.4991 -53.4991 -53.4951 -53.4951 -53.4884 -53.4884
    -6.1171  -5.2573  -4.8854  -4.8612  -4.7891  -4.7891  -4.7666  -4.7666
    -4.7452  -4.7391  -4.6584  -4.6584  -4.5233  -4.4658  -4.4546  -4.3328
    -4.3328  -4.2661  -4.2661  -4.2612  -4.1933  -4.1634  -4.1634  -3.9520
    -3.9400  -3.6526  -3.6526  -3.5390  -3.4337  -3.4337  -3.3832  -3.3832
    -3.3226  -3.2819  -3.2819  -3.2508  -3.2508  -3.2297  -3.2297  -3.2001
    -3.2001  -3.1111  -3.1111  -3.0597  -3.0597  -3.0580  -3.0580  -2.8233
    -2.8233  -2.8196  -2.8196  -2.7001  -2.7001  -2.6976  -2.6976  -2.3737
    -2.3737  -2.3565  -2.3197  -2.3197  -2.2382  -2.2114  -2.2114  -2.0562
    -2.0562  -2.0213  -2.0044  -2.0044  -2.0007  -1.9456  -1.9000  -1.9000
    -1.8536  -1.7988  -1.6319  -1.6319  -1.6030  -1.5825  -1.5825  -1.5241
    -1.5085  -1.5085  -1.4770  -1.4770  -1.4173  -1.3648  -1.3648  -1.3410
    -1.3410  -1.3406  -1.3114  -1.3069  -1.3069  -1.2916  -1.2916  -1.2452
    -1.1237  -1.1237  -1.0496  -1.0399  -0.9298  -0.7797  -0.7687  -0.3674
     1.1844   1.1844   1.2082   1.2082   1.2578   1.2578   1.7139   1.7139
     1.7526   1.7526   1.7663   2.9501   3.8662   3.8662   4.5956   4.5956
     4.8578   4.8578   5.3890   5.3890   5.8901   5.9817   6.1369   6.5004
     6.5174   6.5174   6.8602   7.1458   7.1458   7.4498   7.4699   7.4699
     7.9333   8.4392   8.4392   8.7437   8.8313   8.8368   8.9367   9.1138
     9.1864   9.2433   9.4831   9.4831

     occupation numbers
     1.0000   1.0000   1.0000   1.0000   1.0000   1.0000   1.0000   1.0000
     1.0000   1.0000   1.0000   1.0000   1.0000   1.0000   1.0000   1.0000
[...]
     1.0000   1.0000   1.0000   1.0000   1.0000   1.0000   1.0000   1.0000
     1.0000   1.0000   1.0000   1.0000   1.0000   1.0000   1.0000   1.0000
     1.0000   1.0000   1.0000   1.0000   1.0097   1.0097   1.0097   1.0097
     0.0000   0.0000   0.0000   0.0000   0.0000   0.0000   0.0000   0.0000
     0.0000   0.0000   0.0000   0.0000   0.0000   0.0000   0.0000   0.0000
     0.0000   0.0000   0.0000   0.0000   0.0000   0.0000   0.0000   0.0000
     0.0000   0.0000   0.0000   0.0000   0.0000   0.0000   0.0000   0.0000
     0.0000   0.0000   0.0000   0.0000

     the Fermi energy is     1.6436 ev

!    total energy              =   -6195.58989329 Ry
     estimated scf accuracy    <          3.0E-11 Ry
     smearing contrib. (-TS)   =       0.00042797 Ry
     internal energy E=F+TS    =   -6195.59032125 Ry

     The total energy is F=E-TS. E is the sum of the following terms:
     one-electron contribution = -104391.45257299 Ry
     hartree contribution      =   52191.86701123 Ry
     xc contribution           =    -919.94982019 Ry
     ewald contribution        =   46923.94506070 Ry

     convergence has been achieved in   7 iterations

     Forces acting on atoms (cartesian axes, Ry/au):

     atom    1 type  1   force =     0.00000000    0.00000000   -0.00008250
     atom    2 type  1   force =     0.00000000    0.00000000   -0.00008251
     atom    3 type  1   force =     0.00000000    0.00000000   -0.00008251
     atom    4 type  1   force =     0.00000000    0.00000000   -0.00008251
     atom    5 type  1   force =    -0.00000001   -0.00000001    0.00006673
     atom    6 type  1   force =     0.00000001   -0.00000001    0.00006673
     atom    7 type  1   force =    -0.00000001    0.00000001    0.00006673
     atom    8 type  1   force =     0.00000001    0.00000001    0.00006673
     atom    9 type  1   force =     0.00000000    0.00000000    0.00003560
     atom   10 type  1   force =     0.00000000    0.00000000    0.00003561
     atom   11 type  1   force =     0.00000000    0.00000000    0.00003561
     atom   12 type  1   force =     0.00000000    0.00000000    0.00003563
     atom   13 type  1   force =     0.00000001    0.00000001   -0.00002678
     atom   14 type  1   force =    -0.00000001    0.00000001   -0.00002678
     atom   15 type  1   force =     0.00000001   -0.00000001   -0.00002678
     atom   16 type  1   force =    -0.00000001   -0.00000001   -0.00002678
     atom   17 type  1   force =     0.00000000    0.00000000    0.00000696
     atom   18 type  1   force =     0.00000000    0.00000000    0.00000695
     atom   19 type  1   force =     0.00000000    0.00000000    0.00000695
     atom   20 type  1   force =     0.00000000    0.00000000    0.00000694
     The non-local contrib.  to forces
     atom    1 type  1   force =     0.00000000    0.00000000   -0.22601895
     atom    2 type  1   force =     0.00000000    0.00000000   -0.22601896
     atom    3 type  1   force =     0.00000000    0.00000000   -0.22601896
     atom    4 type  1   force =     0.00000000    0.00000000   -0.22601897
     atom    5 type  1   force =    -0.00000002   -0.00000002   -0.03003390
     atom    6 type  1   force =     0.00000002   -0.00000002   -0.03003390
     atom    7 type  1   force =    -0.00000002    0.00000002   -0.03003390
     atom    8 type  1   force =     0.00000002    0.00000002   -0.03003390
     atom    9 type  1   force =     0.00000000    0.00000000    0.00004172
     atom   10 type  1   force =     0.00000000    0.00000000    0.00004173
     atom   11 type  1   force =     0.00000000    0.00000000    0.00004173
     atom   12 type  1   force =     0.00000000    0.00000000    0.00004176
     atom   13 type  1   force =     0.00000001    0.00000001    0.03010341
     atom   14 type  1   force =    -0.00000001    0.00000001    0.03010341
     atom   15 type  1   force =     0.00000001   -0.00000001    0.03010341
     atom   16 type  1   force =    -0.00000001   -0.00000001    0.03010341
     atom   17 type  1   force =     0.00000000    0.00000000    0.22593167
     atom   18 type  1   force =     0.00000000    0.00000000    0.22593167
     atom   19 type  1   force =     0.00000000    0.00000000    0.22593167
     atom   20 type  1   force =     0.00000000    0.00000000    0.22593167
     The ionic contribution  to forces
     atom    1 type  1   force =     0.00000000    0.00000000 -454.76521713
     atom    2 type  1   force =    -0.00000000    0.00000000 -454.76521877
     atom    3 type  1   force =     0.00000000   -0.00000000 -454.76521877
     atom    4 type  1   force =    -0.00000000   -0.00000000 -454.76522048
     atom    5 type  1   force =    -0.00000306   -0.00000306 -230.16023415
     atom    6 type  1   force =     0.00000306   -0.00000306 -230.16023415
     atom    7 type  1   force =    -0.00000306    0.00000306 -230.16023415
     atom    8 type  1   force =     0.00000306    0.00000306 -230.16023415
     atom    9 type  1   force =     0.00000000    0.00000000    0.00591369
     atom   10 type  1   force =    -0.00000000    0.00000000    0.00591482
     atom   11 type  1   force =     0.00000000   -0.00000000    0.00591482
     atom   12 type  1   force =    -0.00000000   -0.00000000    0.00591276
     atom   13 type  1   force =     0.00000194    0.00000194  230.16329586
     atom   14 type  1   force =    -0.00000194    0.00000194  230.16329586
     atom   15 type  1   force =     0.00000194   -0.00000194  230.16329586
     atom   16 type  1   force =    -0.00000194   -0.00000194  230.16329586
     atom   17 type  1   force =     0.00000000    0.00000000  454.75624215
     atom   18 type  1   force =    -0.00000000    0.00000000  454.75624271
     atom   19 type  1   force =     0.00000000   -0.00000000  454.75624271
     atom   20 type  1   force =    -0.00000000   -0.00000000  454.75624461
     The local contribution  to forces
     atom    1 type  1   force =     0.00000000    0.00000000  454.97596827
     atom    2 type  1   force =    -0.00000001   -0.00000000  454.97596991
     atom    3 type  1   force =     0.00000000   -0.00000001  454.97596991
     atom    4 type  1   force =    -0.00000001   -0.00000001  454.97597163
     atom    5 type  1   force =     0.00000305    0.00000305  230.18933566
     atom    6 type  1   force =    -0.00000307    0.00000305  230.18933566
     atom    7 type  1   force =     0.00000305   -0.00000307  230.18933566
     atom    8 type  1   force =    -0.00000307   -0.00000307  230.18933566
     atom    9 type  1   force =     0.00000000    0.00000000   -0.00592103
     atom   10 type  1   force =    -0.00000001    0.00000000   -0.00592217
     atom   11 type  1   force =     0.00000000   -0.00000001   -0.00592217
     atom   12 type  1   force =    -0.00000001   -0.00000001   -0.00592012
     atom   13 type  1   force =    -0.00000196   -0.00000196 -230.19243348
     atom   14 type  1   force =     0.00000193   -0.00000196 -230.19243348
     atom   15 type  1   force =    -0.00000196    0.00000193 -230.19243348
     atom   16 type  1   force =     0.00000193    0.00000193 -230.19243348
     atom   17 type  1   force =     0.00000000    0.00000000 -454.96699009
     atom   18 type  1   force =    -0.00000001    0.00000000 -454.96699066
     atom   19 type  1   force =     0.00000000   -0.00000001 -454.96699066
     atom   20 type  1   force =    -0.00000001   -0.00000001 -454.96699257
     The core correction contribution to forces
     atom    1 type  1   force =    -0.00000000   -0.00000000    0.01517859
     atom    2 type  1   force =     0.00000000   -0.00000000    0.01517859
     atom    3 type  1   force =    -0.00000000    0.00000000    0.01517859
     atom    4 type  1   force =     0.00000000    0.00000000    0.01517859
     atom    5 type  1   force =     0.00000000    0.00000000    0.00099476
     atom    6 type  1   force =    -0.00000000    0.00000000    0.00099476
     atom    7 type  1   force =     0.00000000   -0.00000000    0.00099476
     atom    8 type  1   force =    -0.00000000   -0.00000000    0.00099476
     atom    9 type  1   force =    -0.00000000   -0.00000000   -0.00000247
     atom   10 type  1   force =     0.00000000   -0.00000000   -0.00000247
     atom   11 type  1   force =    -0.00000000    0.00000000   -0.00000247
     atom   12 type  1   force =     0.00000000    0.00000000   -0.00000248
     atom   13 type  1   force =    -0.00000000   -0.00000000   -0.00099917
     atom   14 type  1   force =     0.00000000   -0.00000000   -0.00099917
     atom   15 type  1   force =    -0.00000000    0.00000000   -0.00099917
     atom   16 type  1   force =     0.00000000    0.00000000   -0.00099917
     atom   17 type  1   force =    -0.00000000   -0.00000000   -0.01517221
     atom   18 type  1   force =     0.00000000   -0.00000000   -0.01517221
     atom   19 type  1   force =    -0.00000000    0.00000000   -0.01517221
     atom   20 type  1   force =     0.00000000    0.00000000   -0.01517221
     The Hubbard contrib.    to forces
     atom    1 type  1   force =     0.00000000    0.00000000    0.00000000
     atom    2 type  1   force =     0.00000000    0.00000000    0.00000000
     atom    3 type  1   force =     0.00000000    0.00000000    0.00000000
     atom    4 type  1   force =     0.00000000    0.00000000    0.00000000
     atom    5 type  1   force =     0.00000000    0.00000000    0.00000000
     atom    6 type  1   force =     0.00000000    0.00000000    0.00000000
     atom    7 type  1   force =     0.00000000    0.00000000    0.00000000
     atom    8 type  1   force =     0.00000000    0.00000000    0.00000000
     atom    9 type  1   force =     0.00000000    0.00000000    0.00000000
     atom   10 type  1   force =     0.00000000    0.00000000    0.00000000
     atom   11 type  1   force =     0.00000000    0.00000000    0.00000000
     atom   12 type  1   force =     0.00000000    0.00000000    0.00000000
     atom   13 type  1   force =     0.00000000    0.00000000    0.00000000
     atom   14 type  1   force =     0.00000000    0.00000000    0.00000000
     atom   15 type  1   force =     0.00000000    0.00000000    0.00000000
     atom   16 type  1   force =     0.00000000    0.00000000    0.00000000
     atom   17 type  1   force =     0.00000000    0.00000000    0.00000000
     atom   18 type  1   force =     0.00000000    0.00000000    0.00000000
     atom   19 type  1   force =     0.00000000    0.00000000    0.00000000
     atom   20 type  1   force =     0.00000000    0.00000000    0.00000000
     The SCF correction term to forces
     atom    1 type  1   force =     0.00000000    0.00000000    0.00000000
     atom    2 type  1   force =     0.00000000    0.00000000    0.00000000
     atom    3 type  1   force =     0.00000000    0.00000000    0.00000000
     atom    4 type  1   force =     0.00000000    0.00000000    0.00000000
     atom    5 type  1   force =    -0.00000000   -0.00000000    0.00000506
     atom    6 type  1   force =     0.00000000    0.00000000    0.00000506
     atom    7 type  1   force =    -0.00000000   -0.00000000    0.00000506
     atom    8 type  1   force =     0.00000000   -0.00000000    0.00000506
     atom    9 type  1   force =    -0.00000000    0.00000000    0.00000441
     atom   10 type  1   force =     0.00000000   -0.00000000    0.00000441
     atom   11 type  1   force =     0.00000000   -0.00000000    0.00000441
     atom   12 type  1   force =     0.00000000   -0.00000000    0.00000441
     atom   13 type  1   force =    -0.00000000   -0.00000000    0.00000730
     atom   14 type  1   force =     0.00000000   -0.00000000    0.00000730
     atom   15 type  1   force =    -0.00000000    0.00000000    0.00000730
     atom   16 type  1   force =     0.00000000    0.00000000    0.00000730
     atom   17 type  1   force =     0.00000000   -0.00000000   -0.00000386
     atom   18 type  1   force =    -0.00000000   -0.00000000   -0.00000386
     atom   19 type  1   force =     0.00000000   -0.00000000   -0.00000386
     atom   20 type  1   force =    -0.00000000    0.00000000   -0.00000386

     Total force =     0.000161     Total SCF correction =     0.000021
     SCF correction compared to forces is large: reduce conv_thr to get better values

     Computing stress (Cartesian axis) and pressure

          total   stress  (Ry/bohr**3)                   (kbar)     P=       -2.60
  -0.00002654   0.00000000   0.00000000           -3.90        0.00        0.00
   0.00000000  -0.00002654   0.00000000            0.00       -3.90        0.00
   0.00000000   0.00000000  -0.00000002            0.00        0.00       -0.00

     kinetic stress (kbar)  24996.06      0.00      0.00
                                0.00  24996.06      0.00
                                0.00      0.00  25035.36

     local   stress (kbar)**********     -0.00     -0.00
                               -0.00**********     -0.00
                               -0.00     -0.001802832.33

     nonloc. stress (kbar)    442.59      0.00      0.00
                                0.00    442.59      0.00
                                0.00      0.00    429.11

     hartree stress (kbar) 908381.00     -0.00      0.00
                               -0.00 908381.00     -0.00
                                0.00     -0.00-891400.80

     exc-cor stress (kbar)   2544.75      0.00     -0.00
                                0.00   2544.75      0.00
                               -0.00      0.00   2543.10

     corecor stress (kbar)  -6714.26     -0.00     -0.00
                               -0.00  -6714.26     -0.00
                               -0.00     -0.00  -6713.92

     ewald   stress (kbar) 882343.09     -0.00      0.00
                               -0.00 882343.09      0.00
                                0.00      0.00-932725.18

     hubbard stress (kbar)      0.00      0.00      0.00
                                0.00      0.00      0.00
                                0.00      0.00      0.00

     DFT-D   stress (kbar)      0.00      0.00      0.00
                                0.00      0.00      0.00
                                0.00      0.00      0.00

     XDM     stress (kbar)      0.00      0.00      0.00
                                0.00      0.00      0.00
                                0.00      0.00      0.00

     dft-nl  stress (kbar)      0.00      0.00      0.00
                                0.00      0.00      0.00
                                0.00      0.00      0.00

     TS-vdW  stress (kbar)      0.00      0.00      0.00
                                0.00      0.00      0.00
                                0.00      0.00      0.00

[...]

                                0.00      0.00      0.00

     Energy error            =      2.5E-06 Ry
     Gradient error          =      6.7E-05 Ry/Bohr

     bfgs converged in  19 scf cycles and  18 bfgs steps
     (criteria: energy <  2.0E-04 Ry, force <  1.0E-04 Ry/Bohr)

     End of BFGS Geometry Optimization

     Final energy             =   -6195.5898932871 Ry

     File ../out/pure_100.bfgs deleted, as requested
Begin final coordinates

ATOMIC_POSITIONS (angstrom)
Ag            0.0000000000        0.0000000000       15.0000000000    0   0   0
Ag            2.8425692604        0.0000000000       15.0000000000    0   0   0
Ag            0.0000000000        2.8425692604       15.0000000000    0   0   0
Ag            2.8425692604        2.8425692604       15.0000000000    0   0   0
Ag            1.4212846541        1.4212846541       17.0140605661
Ag            4.2638538667        1.4212846541       17.0140605661
Ag            1.4212846541        4.2638538667       17.0140605661
Ag            4.2638538667        4.2638538667       17.0140605661
Ag            0.0000000000        0.0000000000       19.0655824534
Ag            2.8425692604        0.0000000000       19.0655824347
Ag            0.0000000000        2.8425692604       19.0655824347
Ag            2.8425692604        2.8425692604       19.0655823776
Ag            1.4212846215        1.4212846215       21.1173564523
Ag            4.2638538993        1.4212846215       21.1173564523
Ag            1.4212846215        4.2638538993       21.1173564523
Ag            4.2638538993        4.2638538993       21.1173564523
Ag            0.0000000000        0.0000000000       23.1319647540
Ag            2.8425692604        0.0000000000       23.1319647773
Ag            0.0000000000        2.8425692604       23.1319647773
Ag            2.8425692604        2.8425692604       23.1319648196
End final coordinates

     Writing all to output data dir ../out/pure_100.save/

     General routines

     Parallel routines

   This run was terminated on:   5: 7:23  21Mar2022

   JOB DONE.