     Program PWSCF v.7.0 starts on 20Mar2022 at 23:26:49

     R & G space division:  proc/nbgrp/npool/nimage =      90

     Reading input from base.in
Warning: card &CELL ignored
Warning: card / ignored

     Current dimensions of program PWSCF are:
     Max number of different atomic species (ntypx) = 10
     Max number of k-points (npk) =  40000
     Max angular momentum in pseudopotentials (lmaxx) =  4
     Message from routine iosys:
     restart disabled: needed files not found
     Found identity + ( -0.5000  0.0000  0.0000) symmetry
     This is a supercell, fractional translations are disabled
     Message from routine setup:
     using ibrav=0 with symmetry is DISCOURAGED, use correct ibrav instead

     Using Slab Decomposition

     bravais-lattice index     =            0
     lattice parameter (alat)  =      10.7434  a.u.
     unit-cell volume          =    8296.9641 (a.u.)^3
     number of atoms/cell      =           20
     number of atomic types    =            1
     number of electrons       =       380.00
     number of Kohn-Sham states=          228
     kinetic-energy cutoff     =      98.0000  Ry
     charge density cutoff     =    1176.0000  Ry
     scf convergence threshold =      7.0E-06
     mixing beta               =       0.7000
     number of iterations used =            8  local-TF  mixing
     Exchange-correlation= PBESOL
                           (   1   4  10   8   0   0   0)

     celldm(1)=  10.743355  celldm(2)=   0.000000  celldm(3)=   0.000000
     celldm(4)=   0.000000  celldm(5)=   0.000000  celldm(6)=   0.000000

     crystal axes: (cart. coord. in units of alat)
               a(1) = (   1.000000   0.000000   0.000000 )
               a(2) = (   0.000000   1.000000   0.000000 )
               a(3) = (   0.000000   0.000000   6.691130 )

     reciprocal axes: (cart. coord. in units 2 pi/alat)
               b(1) = (  1.000000  0.000000  0.000000 )
               b(2) = (  0.000000  1.000000  0.000000 )
               b(3) = (  0.000000  0.000000  0.149452 )

     PseudoPot. # 1 for Ag read from file:
     ../pseudo/Ag.upf
     MD5 check sum: ad830d0ddad01bb1c4c3455ef2da8ae5
     Pseudo is Norm-conserving + core correction, Zval = 19.0
     Generated using ONCVPSP code by D. R. Hamann
     Using radial grid of 1538 points,  6 beta functions with:
                l(1) =   0
                l(2) =   0
                l(3) =   1
                l(4) =   1
                l(5) =   2
                l(6) =   2

     atomic species   valence    mass     pseudopotential
        Ag            19.00   107.86820     Ag( 1.00)

      8 Sym. Ops. (no inversion) found

                                    s                        frac. trans.

      isym =  1     identity

 cryst.   s( 1) = (     1          0          0      )
                  (     0          1          0      )
                  (     0          0          1      )

 cart.    s( 1) = (  1.0000000  0.0000000  0.0000000 )
                  (  0.0000000  1.0000000  0.0000000 )
                  (  0.0000000  0.0000000  1.0000000 )

      isym =  2     180 deg rotation - cart. axis [0,0,1]

[...]

      isym =  4      90 deg rotation - cart. axis [0,0,1]

[...]

      isym =  5     inv. 180 deg rotation - cart. axis [0,1,0]

[...]

      isym =  8     inv. 180 deg rotation - cart. axis [1,-1,0]

 cryst.   s( 8) = (     0          1          0      )
                  (     1          0          0      )
                  (     0          0          1      )

 cart.    s( 8) = (  0.0000000  1.0000000  0.0000000 )
                  (  1.0000000  0.0000000  0.0000000 )
                  (  0.0000000  0.0000000  1.0000000 )

   Cartesian axes

     site n.     atom                  positions (alat units)
         1           Ag  tau(   1) = (   0.0000000   0.0000000   2.6384581  )
         2           Ag  tau(   2) = (   0.5000000   0.0000000   2.6384581  )
         3           Ag  tau(   3) = (   0.0000000   0.5000000   2.6384581  )
         4           Ag  tau(   4) = (   0.5000000   0.5000000   2.6384581  )
         5           Ag  tau(   5) = (   0.2500000   0.2500000   2.9861117  )
         6           Ag  tau(   6) = (   0.7500000   0.2500000   2.9861117  )
         7           Ag  tau(   7) = (   0.2500000   0.7500000   2.9861117  )
         8           Ag  tau(   8) = (   0.7500000   0.7500000   2.9861117  )
         9           Ag  tau(   9) = (   0.0000000   0.0000000   3.3455743  )
        10           Ag  tau(  10) = (   0.5000000   0.0000000   3.3455743  )
        11           Ag  tau(  11) = (   0.0000000   0.5000000   3.3455743  )
        12           Ag  tau(  12) = (   0.5000000   0.5000000   3.3455743  )
        13           Ag  tau(  13) = (   0.2500000   0.2500000   3.7051508  )
        14           Ag  tau(  14) = (   0.7500000   0.2500000   3.7051508  )
        15           Ag  tau(  15) = (   0.2500000   0.7500000   3.7051508  )
        16           Ag  tau(  16) = (   0.7500000   0.7500000   3.7051508  )
        17           Ag  tau(  17) = (   0.0000000   0.0000000   4.0558590  )
        18           Ag  tau(  18) = (   0.5000000   0.0000000   4.0558590  )
        19           Ag  tau(  19) = (   0.0000000   0.5000000   4.0558590  )
        20           Ag  tau(  20) = (   0.5000000   0.5000000   4.0558590  )

   Crystallographic axes

     site n.     atom                  positions (cryst. coord.)
         1           Ag  tau(   1) = (  0.0000000  0.0000000  0.3943218  )
         2           Ag  tau(   2) = (  0.5000000  0.0000000  0.3943218  )
         3           Ag  tau(   3) = (  0.0000000  0.5000000  0.3943218  )
         4           Ag  tau(   4) = (  0.5000000  0.5000000  0.3943218  )
         5           Ag  tau(   5) = (  0.2500000  0.2500000  0.4462791  )
         6           Ag  tau(   6) = (  0.7500000  0.2500000  0.4462791  )
         7           Ag  tau(   7) = (  0.2500000  0.7500000  0.4462791  )
         8           Ag  tau(   8) = (  0.7500000  0.7500000  0.4462791  )
         9           Ag  tau(   9) = (  0.0000000  0.0000000  0.5000014  )
        10           Ag  tau(  10) = (  0.5000000  0.0000000  0.5000014  )
        11           Ag  tau(  11) = (  0.0000000  0.5000000  0.5000014  )
        12           Ag  tau(  12) = (  0.5000000  0.5000000  0.5000014  )
        13           Ag  tau(  13) = (  0.2500000  0.2500000  0.5537407  )
        14           Ag  tau(  14) = (  0.7500000  0.2500000  0.5537407  )
        15           Ag  tau(  15) = (  0.2500000  0.7500000  0.5537407  )
        16           Ag  tau(  16) = (  0.7500000  0.7500000  0.5537407  )
        17           Ag  tau(  17) = (  0.0000000  0.0000000  0.6061546  )
        18           Ag  tau(  18) = (  0.5000000  0.0000000  0.6061546  )
        19           Ag  tau(  19) = (  0.0000000  0.5000000  0.6061546  )
        20           Ag  tau(  20) = (  0.5000000  0.5000000  0.6061546  )

     number of k points=     6  Marzari-Vanderbilt smearing, width (Ry)=  0.0220
                       cart. coord. in units 2pi/alat
        k(    1) = (   0.0000000   0.0000000   0.0000000), wk =   0.1250000
        k(    2) = (   0.0000000   0.2500000   0.0000000), wk =   0.5000000
        k(    3) = (   0.0000000  -0.5000000   0.0000000), wk =   0.2500000
        k(    4) = (   0.2500000   0.2500000   0.0000000), wk =   0.5000000
        k(    5) = (   0.2500000  -0.5000000   0.0000000), wk =   0.5000000
        k(    6) = (  -0.5000000  -0.5000000   0.0000000), wk =   0.1250000

                       cryst. coord.
        k(    1) = (   0.0000000   0.0000000   0.0000000), wk =   0.1250000
        k(    2) = (   0.0000000   0.2500000   0.0000000), wk =   0.5000000
        k(    3) = (   0.0000000  -0.5000000   0.0000000), wk =   0.2500000
        k(    4) = (   0.2500000   0.2500000   0.0000000), wk =   0.5000000
        k(    5) = (   0.2500000  -0.5000000   0.0000000), wk =   0.5000000
        k(    6) = (  -0.5000000  -0.5000000   0.0000000), wk =   0.1250000

     Initial potential from superposition of free atoms

     starting charge     379.9917, renormalised to     380.0000

     negative rho (up, down):  9.493E-06 0.000E+00
     Message from routine qexsd_readschema :
     xml data file ../out/pure_100.save/data-file-schema.xml not found
     Cannot read wfcs: file not found
     Starting wfcs are  200 randomized atomic wfcs +   28 random wfcs

     Self-consistent Calculation

     iteration #  1     ecut=    98.00 Ry     beta= 0.70
     Davidson diagonalization with overlap

     c_bands:  2 eigenvalues not converged
     c_bands:  2 eigenvalues not converged
     ethr =  1.00E-05,  avg # of iterations = 18.7

     total energy              =   -6195.44787927 Ry
     estimated scf accuracy    <       1.34447171 Ry

[...]

     ethr =  3.54E-04,  avg # of iterations =  2.0

[...]

     negative rho (up, down):  4.571E-04 0.000E+00

[...]

     negative rho (up, down):  1.960E-03 0.000E+00

     total energy              =   -6195.58882144 Ry
     estimated scf accuracy    <       0.00003010 Ry

     iteration # 10     ecut=    98.00 Ry     beta= 0.70
     Davidson diagonalization with overlap

     ethr =  7.92E-09,  avg # of iterations =  4.2

     End of self-consistent calculation

          k = 0.0000 0.0000 0.0000 (135767 PWs)   bands (ev):

   -90.3573 -90.3493 -90.3493 -90.3479 -90.3419 -90.3398 -90.3398 -90.3325
   -90.2597 -90.2532 -90.2532 -90.2459 -90.0567 -90.0495 -90.0495 -90.0460
   -90.0421 -90.0388 -90.0388 -90.0315 -53.9308 -53.9308 -53.9150 -53.9150
   -53.9129 -53.9129 -53.9006 -53.9006 -53.8887 -53.8818 -53.8818 -53.8561
   -53.8462 -53.8462 -53.8347 -53.8245 -53.8137 -53.8137 -53.8030 -53.8030
   -53.8007 -53.8007 -53.7913 -53.7913 -53.7867 -53.7867 -53.7735 -53.7735
   -53.7521 -53.7460 -53.7460 -53.7392 -53.6976 -53.6976 -53.6946 -53.6946
   -53.6128 -53.6128 -53.6082 -53.6082 -53.6028 -53.6028 -53.5977 -53.5977
   -53.5464 -53.5408 -53.5408 -53.5371 -53.5358 -53.5300 -53.5300 -53.5258
   -53.5151 -53.5151 -53.5085 -53.5085 -53.5045 -53.5045 -53.4978 -53.4978
    -6.1299  -5.2698  -4.8973  -4.8733  -4.8012  -4.8012  -4.7786  -4.7786
    -4.7574  -4.7510  -4.6703  -4.6703  -4.5349  -4.4772  -4.4661  -4.3444
    -4.3444  -4.2776  -4.2776  -4.2732  -4.2044  -4.1748  -4.1748  -3.9634
    -3.9516  -3.6643  -3.6643  -3.5500  -3.4456  -3.4456  -3.3945  -3.3945
    -3.3341  -3.2931  -3.2931  -3.2623  -3.2623  -3.2416  -3.2416  -3.2109
    -3.2109  -3.1227  -3.1227  -3.0714  -3.0714  -3.0698  -3.0698  -2.8349
    -2.8349  -2.8308  -2.8308  -2.7110  -2.7110  -2.7087  -2.7087  -2.3850
    -2.3850  -2.3675  -2.3310  -2.3310  -2.2502  -2.2224  -2.2224  -2.0675
    -2.0675  -2.0327  -2.0154  -2.0154  -2.0123  -1.9571  -1.9115  -1.9115
    -1.8647  -1.8100  -1.6428  -1.6428  -1.6135  -1.5940  -1.5940  -1.5356
    -1.5191  -1.5191  -1.4877  -1.4877  -1.4286  -1.3762  -1.3762  -1.3524
    -1.3524  -1.3519  -1.3219  -1.3182  -1.3182  -1.3029  -1.3029  -1.2562
    -1.1350  -1.1350  -1.0609  -1.0511  -0.9423  -0.7899  -0.7789  -0.3795
     1.1721   1.1721   1.1962   1.1962   1.2456   1.2456   1.7017   1.7017
     1.7402   1.7402   1.7540   2.9377   3.8536   3.8536   4.5838   4.5838
[...]
     0.0000   0.0000   0.0000   0.0000   0.0000   0.0000   0.0000   0.0000
     0.0000   0.0000   0.0000   0.0000

[...]

          k = 0.2500-0.5000 0.0000 (135938 PWs)   bands (ev):

[...]

          k =-0.5000-0.5000 0.0000 (136072 PWs)   bands (ev):

[...]

     occupation numbers
     1.0000   1.0000   1.0000   1.0000   1.0000   1.0000   1.0000   1.0000
     1.0000   1.0000   1.0000   1.0000   1.0000   1.0000   1.0000   1.0000
     1.0000   1.0000   1.0000   1.0000   1.0000   1.0000   1.0000   1.0000
     1.0000   1.0000   1.0000   1.0000   1.0000   1.0000   1.0000   1.0000
     1.0000   1.0000   1.0000   1.0000   1.0000   1.0000   1.0000   1.0000
     1.0000   1.0000   1.0000   1.0000   1.0000   1.0000   1.0000   1.0000
     1.0000   1.0000   1.0000   1.0000   1.0000   1.0000   1.0000   1.0000
     1.0000   1.0000   1.0000   1.0000   1.0000   1.0000   1.0000   1.0000
     1.0000   1.0000   1.0000   1.0000   1.0000   1.0000   1.0000   1.0000
     1.0000   1.0000   1.0000   1.0000   1.0000   1.0000   1.0000   1.0000
     1.0000   1.0000   1.0000   1.0000   1.0000   1.0000   1.0000   1.0000
     1.0000   1.0000   1.0000   1.0000   1.0000   1.0000   1.0000   1.0000
     1.0000   1.0000   1.0000   1.0000   1.0000   1.0000   1.0000   1.0000
     1.0000   1.0000   1.0000   1.0000   1.0000   1.0000   1.0000   1.0000
     1.0000   1.0000   1.0000   1.0000   1.0000   1.0000   1.0000   1.0000
     1.0000   1.0000   1.0000   1.0000   1.0000   1.0000   1.0000   1.0000
     1.0000   1.0000   1.0000   1.0000   1.0000   1.0000   1.0000   1.0000
     1.0000   1.0000   1.0000   1.0000   1.0000   1.0000   1.0000   1.0000
     1.0000   1.0000   1.0000   1.0000   1.0000   1.0000   1.0000   1.0000
     1.0000   1.0000   1.0000   1.0000   1.0000   1.0000   1.0000   1.0000
     1.0000   1.0000   1.0000   1.0000   1.0000   1.0000   1.0000   1.0000
     1.0000   1.0000   1.0000   1.0000   1.0000   1.0000   1.0000   1.0000
     1.0000   1.0000   1.0000   1.0000   1.0000   1.0000   1.0000   1.0000
     1.0000   1.0000   1.0000   1.0000   1.0120   1.0120   1.0120   1.0120
     0.0000   0.0000   0.0000   0.0000   0.0000   0.0000   0.0000   0.0000
     0.0000   0.0000   0.0000   0.0000   0.0000   0.0000   0.0000   0.0000
     0.0000   0.0000   0.0000   0.0000   0.0000   0.0000   0.0000   0.0000
     0.0000   0.0000   0.0000   0.0000   0.0000   0.0000   0.0000   0.0000
     0.0000   0.0000   0.0000   0.0000

     the Fermi energy is     1.6428 ev

!    total energy              =   -6195.58882288 Ry
     estimated scf accuracy    <       0.00000677 Ry
     smearing contrib. (-TS)   =       0.00062945 Ry
     internal energy E=F+TS    =   -6195.58945233 Ry

     The total energy is F=E-TS. E is the sum of the following terms:
     one-electron contribution = -104953.27100013 Ry
     hartree contribution      =   52472.66390679 Ry
     xc contribution           =    -920.02893693 Ry
     ewald contribution        =   47205.04657794 Ry

     convergence has been achieved in  10 iterations

     Forces acting on atoms (cartesian axes, Ry/au):

     atom    1 type  1   force =     0.00000000    0.00000000   -0.00556932
     atom    2 type  1   force =     0.00000000    0.00000000   -0.00556898
     atom    3 type  1   force =     0.00000000    0.00000000   -0.00556898
     atom    4 type  1   force =     0.00000000    0.00000000   -0.00556907
     atom    5 type  1   force =     0.00000004    0.00000004    0.00435006
     atom    6 type  1   force =    -0.00000004    0.00000004    0.00435006
     atom    7 type  1   force =     0.00000004   -0.00000004    0.00435006
     atom    8 type  1   force =    -0.00000004   -0.00000004    0.00435006
     atom    9 type  1   force =     0.00000000    0.00000000    0.00019833
     atom   10 type  1   force =     0.00000000    0.00000000    0.00019831
     atom   11 type  1   force =     0.00000000    0.00000000    0.00019831
     atom   12 type  1   force =     0.00000000    0.00000000    0.00019829
     atom   13 type  1   force =    -0.00000004   -0.00000004   -0.00197745
     atom   14 type  1   force =     0.00000004   -0.00000004   -0.00197745
     atom   15 type  1   force =    -0.00000004    0.00000004   -0.00197745
     atom   16 type  1   force =     0.00000004    0.00000004   -0.00197745
     atom   17 type  1   force =     0.00000000    0.00000000    0.00299807
     atom   18 type  1   force =     0.00000000    0.00000000    0.00299836
     atom   19 type  1   force =     0.00000000    0.00000000    0.00299836
     atom   20 type  1   force =     0.00000000    0.00000000    0.00299788
     The non-local contrib.  to forces
     atom    1 type  1   force =     0.00000000    0.00000000   -0.23258898
     atom    2 type  1   force =     0.00000000    0.00000000   -0.23258922
     atom    3 type  1   force =     0.00000000    0.00000000   -0.23258922
     atom    4 type  1   force =     0.00000000    0.00000000   -0.23258922
     atom    5 type  1   force =    -0.00000003   -0.00000003   -0.02350987
     atom    6 type  1   force =     0.00000003   -0.00000003   -0.02350987
     atom    7 type  1   force =    -0.00000003    0.00000003   -0.02350987
     atom    8 type  1   force =     0.00000003    0.00000003   -0.02350987
     atom    9 type  1   force =     0.00000000    0.00000000    0.00004840
     atom   10 type  1   force =     0.00000000    0.00000000    0.00004841
     atom   11 type  1   force =     0.00000000    0.00000000    0.00004841
     atom   12 type  1   force =     0.00000000    0.00000000    0.00004829
     atom   13 type  1   force =    -0.00000006   -0.00000006    0.02718365
     atom   14 type  1   force =     0.00000006   -0.00000006    0.02718365
     atom   15 type  1   force =    -0.00000006    0.00000006    0.02718365
     atom   16 type  1   force =     0.00000006    0.00000006    0.02718365
     atom   17 type  1   force =     0.00000000    0.00000000    0.22964333
     atom   18 type  1   force =     0.00000000    0.00000000    0.22964346
     atom   19 type  1   force =     0.00000000    0.00000000    0.22964346
     atom   20 type  1   force =     0.00000000    0.00000000    0.22964334
     The ionic contribution  to forces
     atom    1 type  1   force =     0.00000000    0.00000000 -456.02295957
     atom    2 type  1   force =    -0.00000000    0.00000000 -456.02295612
     atom    3 type  1   force =     0.00000000   -0.00000000 -456.02295612
     atom    4 type  1   force =    -0.00000000   -0.00000000 -456.02295275
     atom    5 type  1   force =     0.00000605    0.00000605 -230.73901695
     atom    6 type  1   force =    -0.00000605    0.00000605 -230.73901695
     atom    7 type  1   force =     0.00000605   -0.00000605 -230.73901695
     atom    8 type  1   force =    -0.00000605   -0.00000605 -230.73901695
     atom    9 type  1   force =     0.00000000    0.00000000    0.15013604
     atom   10 type  1   force =    -0.00000000    0.00000000    0.15013959
     atom   11 type  1   force =     0.00000000   -0.00000000    0.15013959
     atom   12 type  1   force =    -0.00000000   -0.00000000    0.15013941
     atom   13 type  1   force =    -0.00000203   -0.00000203  230.79907339
     atom   14 type  1   force =     0.00000203   -0.00000203  230.79907339
     atom   15 type  1   force =    -0.00000203    0.00000203  230.79907339
     atom   16 type  1   force =     0.00000203    0.00000203  230.79907339
     atom   17 type  1   force =     0.00000000    0.00000000  455.81276732
     atom   18 type  1   force =    -0.00000000    0.00000000  455.81275851
     atom   19 type  1   force =     0.00000000   -0.00000000  455.81275851
     atom   20 type  1   force =    -0.00000000   -0.00000000  455.81275981
     The local contribution  to forces
     atom    1 type  1   force =     0.00000000    0.00000000  456.23486070
     atom    2 type  1   force =    -0.00000001    0.00000000  456.23485788
     atom    3 type  1   force =     0.00000000   -0.00000001  456.23485788
     atom    4 type  1   force =    -0.00000001   -0.00000001  456.23485546
     atom    5 type  1   force =    -0.00000604   -0.00000604  230.76595379
     atom    6 type  1   force =     0.00000601   -0.00000604  230.76595379
     atom    7 type  1   force =    -0.00000604    0.00000601  230.76595379
     atom    8 type  1   force =     0.00000601    0.00000601  230.76595379
     atom    9 type  1   force =     0.00000000    0.00000000   -0.15012060
     atom   10 type  1   force =    -0.00000001    0.00000000   -0.15012396
     atom   11 type  1   force =     0.00000000   -0.00000001   -0.15012396
     atom   12 type  1   force =    -0.00000001   -0.00000001   -0.15012382
     atom   13 type  1   force =     0.00000241    0.00000241 -230.82741414
     atom   14 type  1   force =    -0.00000243    0.00000241 -230.82741414
     atom   15 type  1   force =     0.00000241   -0.00000243 -230.82741414
     atom   16 type  1   force =    -0.00000243   -0.00000243 -230.82741414
     atom   17 type  1   force =     0.00000000    0.00000000 -456.02463548
     atom   18 type  1   force =    -0.00000001    0.00000000 -456.02462930
     atom   19 type  1   force =     0.00000000   -0.00000001 -456.02462930
     atom   20 type  1   force =    -0.00000001   -0.00000001 -456.02463029
     The core correction contribution to forces
     atom    1 type  1   force =     0.00000000   -0.00000000    0.01564420
     atom    2 type  1   force =     0.00000000   -0.00000000    0.01564426
     atom    3 type  1   force =    -0.00000000    0.00000000    0.01564426
     atom    4 type  1   force =     0.00000000    0.00000000    0.01564429
     atom    5 type  1   force =     0.00000001    0.00000001    0.00060078
     atom    6 type  1   force =    -0.00000001    0.00000001    0.00060078
     atom    7 type  1   force =     0.00000001   -0.00000001    0.00060078
     atom    8 type  1   force =    -0.00000001   -0.00000001    0.00060078
     atom    9 type  1   force =    -0.00000000   -0.00000000   -0.00000136
     atom   10 type  1   force =     0.00000000   -0.00000000   -0.00000135
     atom   11 type  1   force =    -0.00000000    0.00000000   -0.00000135
     atom   12 type  1   force =     0.00000000    0.00000000   -0.00000135
     atom   13 type  1   force =     0.00000001    0.00000001   -0.00082285
     atom   14 type  1   force =    -0.00000001    0.00000001   -0.00082285
     atom   15 type  1   force =     0.00000001   -0.00000001   -0.00082285
     atom   16 type  1   force =    -0.00000001   -0.00000001   -0.00082285
     atom   17 type  1   force =    -0.00000000   -0.00000000   -0.01542333
     atom   18 type  1   force =     0.00000000   -0.00000000   -0.01542341
     atom   19 type  1   force =    -0.00000000    0.00000000   -0.01542341
     atom   20 type  1   force =     0.00000000    0.00000000   -0.01542339
     The Hubbard contrib.    to forces
     atom    1 type  1   force =     0.00000000    0.00000000    0.00000000
     atom    2 type  1   force =     0.00000000    0.00000000    0.00000000
     atom    3 type  1   force =     0.00000000    0.00000000    0.00000000
     atom    4 type  1   force =     0.00000000    0.00000000    0.00000000
     atom    5 type  1   force =     0.00000000    0.00000000    0.00000000
     atom    6 type  1   force =     0.00000000    0.00000000    0.00000000
     atom    7 type  1   force =     0.00000000    0.00000000    0.00000000
     atom    8 type  1   force =     0.00000000    0.00000000    0.00000000
     atom    9 type  1   force =     0.00000000    0.00000000    0.00000000
     atom   10 type  1   force =     0.00000000    0.00000000    0.00000000
     atom   11 type  1   force =     0.00000000    0.00000000    0.00000000
     atom   12 type  1   force =     0.00000000    0.00000000    0.00000000
     atom   13 type  1   force =     0.00000000    0.00000000    0.00000000
     atom   14 type  1   force =     0.00000000    0.00000000    0.00000000
     atom   15 type  1   force =     0.00000000    0.00000000    0.00000000
     atom   16 type  1   force =     0.00000000    0.00000000    0.00000000
     atom   17 type  1   force =     0.00000000    0.00000000    0.00000000
     atom   18 type  1   force =     0.00000000    0.00000000    0.00000000
     atom   19 type  1   force =     0.00000000    0.00000000    0.00000000
     atom   20 type  1   force =     0.00000000    0.00000000    0.00000000
     The SCF correction term to forces
     atom    1 type  1   force =     0.00000000    0.00000000    0.00000000
     atom    2 type  1   force =     0.00000000    0.00000000    0.00000000
     atom    3 type  1   force =     0.00000000    0.00000000    0.00000000
     atom    4 type  1   force =     0.00000000    0.00000000    0.00000000
     atom    5 type  1   force =     0.00000004    0.00000004    0.00032164
     atom    6 type  1   force =    -0.00000004    0.00000004    0.00032164
     atom    7 type  1   force =     0.00000004   -0.00000004    0.00032164
     atom    8 type  1   force =    -0.00000004   -0.00000004    0.00032164
     atom    9 type  1   force =     0.00000000    0.00000000    0.00013517
     atom   10 type  1   force =    -0.00000000    0.00000000    0.00013495
     atom   11 type  1   force =     0.00000000   -0.00000000    0.00013495
     atom   12 type  1   force =    -0.00000000   -0.00000000    0.00013508
     atom   13 type  1   force =    -0.00000039   -0.00000039    0.00000183
     atom   14 type  1   force =     0.00000039   -0.00000039    0.00000183
     atom   15 type  1   force =    -0.00000039    0.00000039    0.00000183
     atom   16 type  1   force =     0.00000039    0.00000039    0.00000183
     atom   17 type  1   force =     0.00000000    0.00000000    0.00064555
     atom   18 type  1   force =    -0.00000000    0.00000000    0.00064842
     atom   19 type  1   force =     0.00000000   -0.00000000    0.00064842
     atom   20 type  1   force =    -0.00000000   -0.00000000    0.00064774

     Total force =     0.011289     Total SCF correction =     0.001471
     SCF correction compared to forces is large: reduce conv_thr to get better values

     Computing stress (Cartesian axis) and pressure

          total   stress  (Ry/bohr**3)                   (kbar)     P=       -1.06
  -0.00001725   0.00000000   0.00000000           -2.54        0.00        0.00
   0.00000000  -0.00001725   0.00000000            0.00       -2.54        0.00
   0.00000000   0.00000000   0.00001286            0.00        0.00        1.89

     kinetic stress (kbar)  24996.95      0.00      0.00
                                0.00  24996.95      0.00
                                0.00      0.00  25034.59

     local   stress (kbar)**********      0.00      0.00
                                0.00**********      0.00
                                0.00      0.001813188.50

     nonloc. stress (kbar)    444.18      0.00      0.00
                                0.00    444.18      0.00
                                0.00      0.00    430.99

     hartree stress (kbar) 913434.80     -0.00      0.00
                               -0.00 913434.80     -0.00
                                0.00     -0.00-896529.87

     exc-cor stress (kbar)   2544.37     -0.00      0.00
                               -0.00   2544.37      0.00
                                0.00      0.00   2542.73

     corecor stress (kbar)  -6714.28     -0.00     -0.00
                               -0.00  -6714.28     -0.00
                               -0.00     -0.00  -6713.93

     ewald   stress (kbar) 887448.03      0.00     -0.00
                                0.00 887448.03     -0.00
                               -0.00     -0.00-937951.12

     hubbard stress (kbar)      0.00      0.00      0.00
                                0.00      0.00      0.00
                                0.00      0.00      0.00

     DFT-D   stress (kbar)      0.00      0.00      0.00
                                0.00      0.00      0.00
                                0.00      0.00      0.00

     XDM     stress (kbar)      0.00      0.00      0.00
                                0.00      0.00      0.00
                                0.00      0.00      0.00

     dft-nl  stress (kbar)      0.00      0.00      0.00
                                0.00      0.00      0.00
                                0.00      0.00      0.00

     TS-vdW  stress (kbar)      0.00      0.00      0.00
                                0.00      0.00      0.00
                                0.00      0.00      0.00

[...]

                                0.00      0.00      0.00

     Writing all to output data dir ../out/pure_100.save/

     General routines

     Parallel routines

   This run was terminated on:  23:30:46  20Mar2022

   JOB DONE.